Cu4 S2
1.0
      3.9879324436       0.0000000000      -0.6120823820
     -2.9373219107       2.6973589246      -0.6120823820
      0.0000000000       0.0000000000       4.0346313360
Cu S
4 2
direct
   0.1250000000000000    0.7887170000000000    0.1637170000000000 Cu
   0.2112830000000000    0.3750000000000000    0.3362830000000000 Cu
   0.6250000000000000    0.9612830000000000    0.8362830000000000 Cu
   0.0387170000000000    0.8750000000000000    0.6637170000000000 Cu
   0.5000000000000000    0.5000000000000000    0.0000000000000000 S
   0.7500000000000000    0.2500000000000000    0.5000000000000000 S
