Cu4 S2
1.0
      4.4864239991       0.0000000000      -0.6885926797
     -3.3044871495       3.0345287901      -0.6885926797
      0.0000000000       0.0000000000       4.5389602530
Cu S
4 2
direct
   0.1250000000000000    0.7887170000000000    0.1637170000000000 Cu
   0.2112830000000000    0.3750000000000000    0.3362830000000000 Cu
   0.6250000000000000    0.9612830000000000    0.8362830000000000 Cu
   0.0387170000000000    0.8750000000000000    0.6637170000000000 Cu
   0.5000000000000000    0.5000000000000000    0.0000000000000000 S
   0.7500000000000000    0.2500000000000000    0.5000000000000000 S
