Mn3 Sb1
1.0
      3.2413747000       0.0000000000       0.0000000000
     -0.0000000000       3.2413747000       0.0000000000
      0.0000000000       0.0000000000       3.2413747000
Mn Sb
3 1
direct
   0.0000000000000000    0.5000000000000000    0.5000000000000000 Mn
   0.5000000000000000    0.5000000000000000    0.0000000000000000 Mn
   0.5000000000000000    0.0000000000000000    0.5000000000000000 Mn
   0.0000000000000000    0.0000000000000000    0.0000000000000000 Sb
