Tm1 Mn12
1.0
      4.9984524967       0.0000000000      -0.6785058868
     -3.8132006042       3.2317222210      -0.6785058868
      0.0000000000       0.0000000000       5.0442935680
Tm Mn
1 12
direct
   0.0000000000000000    0.0000000000000000    0.0000000000000000 Tm
   0.5000000000000000    0.5000000000000000    0.5000000000000000 Mn
   0.0000000000000000    0.0000000000000000    0.5000000000000000 Mn
   0.0000000000000000    0.5000000000000000    0.0000000000000000 Mn
   0.5000000000000000    0.0000000000000000    0.0000000000000000 Mn
   0.3615730000000000    0.0000000000000000    0.3615730000000000 Mn
   0.6384270000000000    0.0000000000000000    0.6384270000000000 Mn
   0.0000000000000000    0.6384270000000000    0.6384270000000000 Mn
   0.0000000000000000    0.3615730000000000    0.3615730000000000 Mn
   0.2738800000000000    0.5000000000000000    0.7738800000000000 Mn
   0.7261200000000000    0.5000000000000000    0.2261200000000000 Mn
   0.5000000000000000    0.7261200000000000    0.2261200000000000 Mn
   0.5000000000000000    0.2738800000000000    0.7738800000000000 Mn
