Tm1 Mn12
1.0
      5.3108557777       0.0000000000      -0.7209125047
     -4.0515256420       3.4337048598      -0.7209125047
      0.0000000000       0.0000000000       5.3595619160
Tm Mn
1 12
direct
   0.0000000000000000    0.0000000000000000    0.0000000000000000 Tm
   0.5000000000000000    0.5000000000000000    0.5000000000000000 Mn
   0.0000000000000000    0.0000000000000000    0.5000000000000000 Mn
   0.0000000000000000    0.5000000000000000    0.0000000000000000 Mn
   0.5000000000000000    0.0000000000000000    0.0000000000000000 Mn
   0.3615730000000000    0.0000000000000000    0.3615730000000000 Mn
   0.6384270000000000    0.0000000000000000    0.6384270000000000 Mn
   0.0000000000000000    0.6384270000000000    0.6384270000000000 Mn
   0.0000000000000000    0.3615730000000000    0.3615730000000000 Mn
   0.2738800000000000    0.5000000000000000    0.7738800000000000 Mn
   0.7261200000000000    0.5000000000000000    0.2261200000000000 Mn
   0.5000000000000000    0.7261200000000000    0.2261200000000000 Mn
   0.5000000000000000    0.2738800000000000    0.7738800000000000 Mn
