Li3 Mg1
1.0
      3.6579242550       0.0000000000       0.0000000000
     -0.0000000000       3.6579242550       0.0000000000
      0.0000000000       0.0000000000       3.6579284795
Li Mg
3 1
direct
   0.4999990000000000    0.4999990000000000    0.0000000000000000 Li
   0.4999990000000000    0.0000000000000000    0.4999990000000000 Li
   0.0000000000000000    0.4999990000000000    0.4999990000000000 Li
   0.0000000000000000    0.0000000000000000    0.0000000000000000 Mg
