Mg1 I2
1.0
      3.5663318590       0.0000000000       0.0000000000
     -1.7831668196       3.0885334547       0.0000000000
      0.0000000000       0.0000000000       6.0398678905
Mg I
1 2
direct
   0.0000000000000000    0.0000000000000000    0.0000000000000000 Mg
   0.3333333333333333    0.6666666666666666    0.2340768500000000 I
   0.6666666666666666    0.3333333333333333    0.7659231500000000 I
