Mg1 I2
1.0
      3.1467634050       0.0000000000       0.0000000000
     -1.5733824879       2.7251765777       0.0000000000
      0.0000000000       0.0000000000       5.3292951975
Mg I
1 2
direct
   0.0000000000000000    0.0000000000000000    0.0000000000000000 Mg
   0.3333333333333333    0.6666666666666666    0.2340768500000000 I
   0.6666666666666666    0.3333333333333333    0.7659231500000000 I
