Mg1 I2
1.0
      3.3565476320       0.0000000000       0.0000000000
     -1.6782746537       2.9068550162       0.0000000000
      0.0000000000       0.0000000000       5.6845815440
Mg I
1 2
direct
   0.0000000000000000    0.0000000000000000    0.0000000000000000 Mg
   0.3333333333333333    0.6666666666666666    0.2340768500000000 I
   0.6666666666666666    0.3333333333333333    0.7659231500000000 I
