Mg1 I2
1.0
      3.7761160860       0.0000000000       0.0000000000
     -1.8880589855       3.2702118932       0.0000000000
      0.0000000000       0.0000000000       6.3951542370
Mg I
1 2
direct
   0.0000000000000000    0.0000000000000000    0.0000000000000000 Mg
   0.3333333333333333    0.6666666666666666    0.2340768500000000 I
   0.6666666666666666    0.3333333333333333    0.7659231500000000 I
