Mg1 I2
1.0
      3.9859003130       0.0000000000       0.0000000000
     -1.9929511513       3.4518903317       0.0000000000
      0.0000000000       0.0000000000       6.7504405835
Mg I
1 2
direct
   0.0000000000000000    0.0000000000000000    0.0000000000000000 Mg
   0.3333333333333333    0.6666666666666666    0.2340768500000000 I
   0.6666666666666666    0.3333333333333333    0.7659231500000000 I
