Ca2 Zn4
1.0
      3.1282021479       0.0000000000       1.3622325897
      1.5455305801       3.9172765121       0.7237623540
      0.0000000000       0.0000000000       4.2728855850
Ca Zn
2 4
direct
   0.5526837200000000    0.6973162800000000    0.1973162800000000 Ca
   0.4473162800000000    0.3026837200000000    0.8026837200000000 Ca
   0.1634873600000000    0.2723318400000000    0.4006964400000000 Zn
   0.8365126400000000    0.7276681600000000    0.5993035600000000 Zn
   0.1634873600000000    0.9006964400000000    0.7723318400000000 Zn
   0.8365126400000000    0.0993035600000000    0.2276681600000000 Zn
