K6 Te6
1.0
      8.1158596700       0.0000000000       0.0000000000
     -4.0579285626       7.0285413137       0.0000000000
      0.0000000000       0.0000000000       5.5855055925
K Te
6 6
direct
   0.6536805300000000    0.0000000000000000    0.0000000000000000 K
   0.3463194700000000    0.3463194700000000    0.0000000000000000 K
   0.0000000000000000    0.6536805300000000    0.0000000000000000 K
   0.3193021700000000    0.0000000000000000    0.5000000000000000 K
   0.6806978299999999    0.6806978299999999    0.5000000000000000 K
   0.0000000000000000    0.3193021700000000    0.5000000000000000 K
   0.0000000000000000    0.0000000000000000    0.2130804400000000 Te
   0.0000000000000000    0.0000000000000000    0.7869195600000000 Te
   0.3333333333333333    0.6666666666666666    0.2859705800000000 Te
   0.3333333333333333    0.6666666666666666    0.7140294200000000 Te
   0.6666666666666666    0.3333333333333333    0.7140294200000000 Te
   0.6666666666666666    0.3333333333333333    0.2859705800000000 Te
