K3 Mn1
1.0
      4.2988322764       0.0000000000      -3.5875189314
     -0.9413200546       4.1945053934      -3.5875189314
      0.0000000000       0.0000000000       5.5991294880
K Mn
3 1
direct
   0.7500000000000000    0.2500000000000000    0.5000000000000000 K
   0.2500000000000000    0.7500000000000000    0.5000000000000000 K
   0.5000000000000000    0.5000000000000000    0.0000000000000000 K
   0.0000000000000000    0.0000000000000000    0.0000000000000000 Mn
