K3 Mn1
1.0
      4.8361863109       0.0000000000      -4.0359587978
     -1.0589850614       4.7188185676      -4.0359587978
      0.0000000000       0.0000000000       6.2990206740
K Mn
3 1
direct
   0.7500000000000000    0.2500000000000000    0.5000000000000000 K
   0.2500000000000000    0.7500000000000000    0.5000000000000000 K
   0.5000000000000000    0.5000000000000000    0.0000000000000000 K
   0.0000000000000000    0.0000000000000000    0.0000000000000000 Mn
