K3 Mn1
1.0
      4.5675092936       0.0000000000      -3.8117388646
     -1.0001525580       4.4566619805      -3.8117388646
      0.0000000000       0.0000000000       5.9490750810
K Mn
3 1
direct
   0.7500000000000000    0.2500000000000000    0.5000000000000000 K
   0.2500000000000000    0.7500000000000000    0.5000000000000000 K
   0.5000000000000000    0.5000000000000000    0.0000000000000000 K
   0.0000000000000000    0.0000000000000000    0.0000000000000000 Mn
