K3 Mn1
1.0
      5.1048633282       0.0000000000      -4.2601787310
     -1.1178175648       4.9809751547      -4.2601787310
      0.0000000000       0.0000000000       6.6489662670
K Mn
3 1
direct
   0.7500000000000000    0.2500000000000000    0.5000000000000000 K
   0.2500000000000000    0.7500000000000000    0.5000000000000000 K
   0.5000000000000000    0.5000000000000000    0.0000000000000000 K
   0.0000000000000000    0.0000000000000000    0.0000000000000000 Mn
