K3 Mn1
1.0
      4.0301552591       0.0000000000      -3.3632989982
     -0.8824875512       3.9323488063      -3.3632989982
      0.0000000000       0.0000000000       5.2491838950
K Mn
3 1
direct
   0.7500000000000000    0.2500000000000000    0.5000000000000000 K
   0.2500000000000000    0.7500000000000000    0.5000000000000000 K
   0.5000000000000000    0.5000000000000000    0.0000000000000000 K
   0.0000000000000000    0.0000000000000000    0.0000000000000000 Mn
