Li3 Mg3
1.0
      2.9791357610       0.0000000000       0.0000000000
     -1.4893422089       2.5801375288       0.0000000000
      0.0000000000       0.0000000000      14.4383884865
Li Mg
3 3
direct
   0.0000001700000000    0.9999998300000000    0.6659976399999999 Li
   0.6666666666666666    0.3333333333333333    0.5000000000000000 Li
   0.0000001700000000    0.9999998300000000    0.3340023600000000 Li
   0.0000011700000000    0.9999988300000000    0.0000000000000000 Mg
   0.6666666666666666    0.3333333333333333    0.8292542100000000 Mg
   0.6666666666666666    0.3333333333333333    0.1707457900000000 Mg
