Li3 Pt1
1.0
      3.1308095397       0.0000000000       1.8075737305
      1.0436031799       2.9517555415       1.8075737305
      0.0000000000       0.0000000000       3.6151474610
Li Pt
3 1
direct
   0.0000000000000000    0.0000000000000000    0.0000000000000000 Li
   0.4999990000000000    0.4999990000000000    0.4999990000000000 Li
   0.2500010000000000    0.2500010000000000    0.2500010000000000 Li
   0.7500000000000000    0.7500000000000000    0.7500000000000000 Pt
