Li3 Pt1
1.0
      3.4991400737       0.0000000000       2.0202294635
      1.1663800246       3.2990208993       2.0202294635
      0.0000000000       0.0000000000       4.0404589270
Li Pt
3 1
direct
   0.0000000000000000    0.0000000000000000    0.0000000000000000 Li
   0.4999990000000000    0.4999990000000000    0.4999990000000000 Li
   0.2500010000000000    0.2500010000000000    0.2500010000000000 Li
   0.7500000000000000    0.7500000000000000    0.7500000000000000 Pt
