Li3 Pt1
1.0
      3.3149748067       0.0000000000       1.9139015970
      1.1049916022       3.1253882204       1.9139015970
      0.0000000000       0.0000000000       3.8278031940
Li Pt
3 1
direct
   0.0000000000000000    0.0000000000000000    0.0000000000000000 Li
   0.4999990000000000    0.4999990000000000    0.4999990000000000 Li
   0.2500010000000000    0.2500010000000000    0.2500010000000000 Li
   0.7500000000000000    0.7500000000000000    0.7500000000000000 Pt
