Li2 In2
1.0
      3.1299836237       0.0000000000       1.8070970618
      1.0433278730       2.9509774208       1.8070970628
      0.0000000000       0.0000000000       3.6141948825
Li In
2 2
direct
   0.6250000000000000    0.6250000000000000    0.6250000000000000 Li
   0.3750000000000000    0.3750000000000000    0.3750000000000000 Li
   0.1250000000000000    0.1250000000000000    0.1250000000000000 In
   0.8750000000000000    0.8750000000000000    0.8750000000000000 In
