K3 Rb1
1.0
      5.3553679801       0.0000000000      -4.7451591855
     -1.0845504954       5.2443985761      -4.7451591855
      0.0000000000       0.0000000000       7.1551730865
K Rb
3 1
direct
   0.7500000000000000    0.2500000000000000    0.5000000000000000 K
   0.2500000000000000    0.7500000000000000    0.5000000000000000 K
   0.5000000000000000    0.5000000000000000    0.0000000000000000 K
   0.0000000000000000    0.0000000000000000    0.0000000000000000 Rb
