K3 Rb1
1.0
      5.9854112718       0.0000000000      -5.3034132073
     -1.2121446713       5.8613866439      -5.3034132073
      0.0000000000       0.0000000000       7.9969581555
K Rb
3 1
direct
   0.7500000000000000    0.2500000000000000    0.5000000000000000 K
   0.2500000000000000    0.7500000000000000    0.5000000000000000 K
   0.5000000000000000    0.5000000000000000    0.0000000000000000 K
   0.0000000000000000    0.0000000000000000    0.0000000000000000 Rb
