K3 Rb1
1.0
      5.6703896260       0.0000000000      -5.0242861964
     -1.1483475833       5.5528926100      -5.0242861964
      0.0000000000       0.0000000000       7.5760656210
K Rb
3 1
direct
   0.7500000000000000    0.2500000000000000    0.5000000000000000 K
   0.2500000000000000    0.7500000000000000    0.5000000000000000 K
   0.5000000000000000    0.5000000000000000    0.0000000000000000 K
   0.0000000000000000    0.0000000000000000    0.0000000000000000 Rb
