K3 Rb1
1.0
      4.7253246883       0.0000000000      -4.1869051637
     -0.9569563194       4.6274105083      -4.1869051637
      0.0000000000       0.0000000000       6.3133880175
K Rb
3 1
direct
   0.7500000000000000    0.2500000000000000    0.5000000000000000 K
   0.2500000000000000    0.7500000000000000    0.5000000000000000 K
   0.5000000000000000    0.5000000000000000    0.0000000000000000 K
   0.0000000000000000    0.0000000000000000    0.0000000000000000 Rb
