K3 Rb1
1.0
      5.0403463342       0.0000000000      -4.4660321746
     -1.0207534074       4.9359045422      -4.4660321746
      0.0000000000       0.0000000000       6.7342805520
K Rb
3 1
direct
   0.7500000000000000    0.2500000000000000    0.5000000000000000 K
   0.2500000000000000    0.7500000000000000    0.5000000000000000 K
   0.5000000000000000    0.5000000000000000    0.0000000000000000 K
   0.0000000000000000    0.0000000000000000    0.0000000000000000 Rb
