Cu6 Sn2
1.0
      5.2314547560       0.0000000000       0.0000000000
     -2.6157268840       4.5305718618       0.0000000000
      0.0000000000       0.0000000000       4.0590539610
Cu Sn
6 2
direct
   0.1557728600000000    0.8442271400000000    0.7500000000000000 Cu
   0.3115447200000000    0.1557728600000000    0.2500000000000000 Cu
   0.8442271400000000    0.6884552800000000    0.2500000000000000 Cu
   0.1557728600000000    0.3115447200000000    0.7500000000000000 Cu
   0.6884552800000000    0.8442271400000000    0.7500000000000000 Cu
   0.8442271400000000    0.1557728600000000    0.2500000000000000 Cu
   0.3333333333333333    0.6666666666666666    0.2500000000000000 Sn
   0.6666666666666666    0.3333333333333333    0.7500000000000000 Sn
