Cu6 Sn2
1.0
      4.4054355840       0.0000000000       0.0000000000
     -2.2027173760       3.8152184099       0.0000000000
      0.0000000000       0.0000000000       3.4181507040
Cu Sn
6 2
direct
   0.1557728600000000    0.8442271400000000    0.7500000000000000 Cu
   0.3115447200000000    0.1557728600000000    0.2500000000000000 Cu
   0.8442271400000000    0.6884552800000000    0.2500000000000000 Cu
   0.1557728600000000    0.3115447200000000    0.7500000000000000 Cu
   0.6884552800000000    0.8442271400000000    0.7500000000000000 Cu
   0.8442271400000000    0.1557728600000000    0.2500000000000000 Cu
   0.3333333333333333    0.6666666666666666    0.2500000000000000 Sn
   0.6666666666666666    0.3333333333333333    0.7500000000000000 Sn
