Li2 Br2
1.0
      3.7258820280       0.0000000000       0.0000000000
     -1.8629373033       3.2267106301       0.0000000000
      0.0000000000       0.0000000000       6.0239623410
Li Br
2 2
direct
   0.0000000000000000    0.0000000000000000    0.3768752400000000 Li
   0.3333333333333333    0.6666666666666666    0.8768752399999999 Li
   0.0000000000000000    0.0000000000000000    0.9981227600000000 Br
   0.3333333333333333    0.6666666666666666    0.4981227600000000 Br
