Li6 Sm2
1.0
      5.6735549505       0.0000000000       0.0000000000
     -2.8367779280       4.9134424555       0.0000000000
      0.0000000000       0.0000000000       4.3163544000
Li Sm
6 2
direct
   0.7030800000000000    0.8515400000000000    0.2500000000000000 Li
   0.1484600000000000    0.2969200000000000    0.2500000000000000 Li
   0.8515400000000000    0.1484600000000000    0.7500000000000000 Li
   0.1484600000000000    0.8515400000000000    0.2500000000000000 Li
   0.8515400000000000    0.7030800000000000    0.7500000000000000 Li
   0.2969200000000000    0.1484600000000000    0.7500000000000000 Li
   0.3333333333333333    0.6666666666666666    0.7500000000000000 Sm
   0.6666666666666666    0.3333333333333333    0.2500000000000000 Sm
