K3 Hf1
1.0
      5.0416237629       0.0000000000      -4.9290356607
     -0.8929183055       4.9619217111      -4.9290356607
      0.0000000000       0.0000000000       7.0507703630
K Hf
3 1
direct
   0.7500000000000000    0.2500000000000000    0.5000000000000000 K
   0.2500000000000000    0.7500000000000000    0.5000000000000000 K
   0.5000000000000000    0.5000000000000000    0.0000000000000000 K
   0.0000000000000000    0.0000000000000000    0.0000000000000000 Hf
