K3 Hf1
1.0
      4.2455779056       0.0000000000      -4.1507668722
     -0.7519312046       4.1784603883      -4.1507668722
      0.0000000000       0.0000000000       5.9374908320
K Hf
3 1
direct
   0.7500000000000000    0.2500000000000000    0.5000000000000000 K
   0.2500000000000000    0.7500000000000000    0.5000000000000000 K
   0.5000000000000000    0.5000000000000000    0.0000000000000000 K
   0.0000000000000000    0.0000000000000000    0.0000000000000000 Hf
