K3 Hf1
1.0
      4.5109265247       0.0000000000      -4.4101898017
     -0.7989269049       4.4396141625      -4.4101898017
      0.0000000000       0.0000000000       6.3085840090
K Hf
3 1
direct
   0.7500000000000000    0.2500000000000000    0.5000000000000000 K
   0.2500000000000000    0.7500000000000000    0.5000000000000000 K
   0.5000000000000000    0.5000000000000000    0.0000000000000000 K
   0.0000000000000000    0.0000000000000000    0.0000000000000000 Hf
