K3 Hf1
1.0
      3.9802292865       0.0000000000      -3.8913439427
     -0.7049355043       3.9173066140      -3.8913439427
      0.0000000000       0.0000000000       5.5663976550
K Hf
3 1
direct
   0.7500000000000000    0.2500000000000000    0.5000000000000000 K
   0.2500000000000000    0.7500000000000000    0.5000000000000000 K
   0.5000000000000000    0.5000000000000000    0.0000000000000000 K
   0.0000000000000000    0.0000000000000000    0.0000000000000000 Hf
