K3 Hf1
1.0
      4.7762751438       0.0000000000      -4.6696127312
     -0.8459226052       4.7007679368      -4.6696127312
      0.0000000000       0.0000000000       6.6796771860
K Hf
3 1
direct
   0.7500000000000000    0.2500000000000000    0.5000000000000000 K
   0.2500000000000000    0.7500000000000000    0.5000000000000000 K
   0.5000000000000000    0.5000000000000000    0.0000000000000000 K
   0.0000000000000000    0.0000000000000000    0.0000000000000000 Hf
