K6 Pr2
1.0
      7.3810019705       0.0000000000       0.0000000000
     -3.6905007599       6.3921353419       0.0000000000
      0.0000000000       0.0000000000       6.1002205000
K Pr
6 2
direct
   0.1708140000000000    0.3416290000000000    0.2500000000000000 K
   0.6583710000000000    0.8291860000000000    0.2500000000000000 K
   0.1708140000000000    0.8291860000000000    0.2500000000000000 K
   0.8291860000000000    0.6583710000000000    0.7500000000000000 K
   0.3416290000000000    0.1708140000000000    0.7500000000000000 K
   0.8291860000000000    0.1708140000000000    0.7500000000000000 K
   0.3333333333333333    0.6666666666666666    0.7500000000000000 Pr
   0.6666666666666666    0.3333333333333333    0.2500000000000000 Pr
