Mn6 Pt2
1.0
      4.1835112000       0.0000000000       0.0000000000
     -2.0917559990       3.6230271985       0.0000000000
      0.0000000000       0.0000000000       3.2405680000
Mn Pt
6 2
direct
   0.1511140000000000    0.3022290000000000    0.2499990000000000 Mn
   0.6977700000000000    0.8488860000000000    0.2499990000000000 Mn
   0.1511160000000000    0.8488860000000000    0.2499990000000000 Mn
   0.8488869999999999    0.6977700000000000    0.7500000000000000 Mn
   0.3022300000000000    0.1511150000000000    0.7500000000000000 Mn
   0.8488860000000000    0.1511150000000000    0.7500000000000000 Mn
   0.3333333333333333    0.6666666666666666    0.7500000000000000 Pt
   0.6666666666666666    0.3333333333333333    0.2499990000000000 Pt
