Li1 Au1
1.0
      2.9297508280       0.0000000000       0.0000000000
     -0.0000000000       2.9297508280       0.0000000000
      0.0000000000       0.0000000000       2.9297508280
Li Au
1 1
direct
   0.0000000000000000    0.0000000000000000    0.0000000000000000 Li
   0.5000000000000000    0.5000000000000000    0.5000000000000000 Au
