In6 Cu2
1.0
      5.2857133575       0.0000000000       0.0000000000
     -2.6428565333       4.5775621287       0.0000000000
      0.0000000000       0.0000000000       3.3215700000
In Cu
6 2
direct
   0.1804970000000000    0.3609950000000000    0.2500000000000000 In
   0.6390050000000000    0.8195030000000000    0.2500000000000000 In
   0.1804970000000000    0.8195030000000000    0.2500000000000000 In
   0.8195030000000000    0.6390050000000000    0.7500000000000000 In
   0.3609950000000000    0.1804970000000000    0.7500000000000000 In
   0.8195030000000000    0.1804970000000000    0.7500000000000000 In
   0.3333333333333333    0.6666666666666666    0.7500000000000000 Cu
   0.6666666666666666    0.3333333333333333    0.2500000000000000 Cu
