K4 Na8
1.0
      5.5415873625       0.0000000000       0.0000000000
     -2.7707966797       4.7991566379       0.0000000000
      0.0000000000       0.0000000000       9.3160323900
K Na
4 8
direct
   0.6666666666666666    0.3333333333333333    0.9378280300000000 K
   0.3333333333333333    0.6666666666666666    0.4378280300000000 K
   0.3333333333333333    0.6666666666666666    0.0621719700000000 K
   0.6666666666666666    0.3333333333333333    0.5621719700000000 K
   0.3342229400000000    0.1671109700000000    0.2500000000000000 Na
   0.1671109700000000    0.8328880300000000    0.7500000000000000 Na
   0.1671109700000000    0.3342229400000000    0.7500000000000000 Na
   0.8328890300000000    0.6657770600000000    0.2500000000000000 Na
   0.8328890300000000    0.1671119700000000    0.2500000000000000 Na
   0.0000000000000000    0.0000000000000000    0.0000000000000000 Na
   0.6657770600000000    0.8328890300000000    0.7500000000000000 Na
   0.0000000000000000    0.0000000000000000    0.5000000000000000 Na
