Mn1 Be12
1.0
      2.8679951981       0.0000000000       1.1598600833
      1.4347193562       3.8275281525       0.5810321672
      0.0000000000       0.0000000000       4.1286797325
Mn Be
1 12
direct
   0.0000000000000000    0.0000000000000000    0.0000000000000000 Mn
   0.0000000000000000    0.0000000000000000    0.5000000000000000 Be
   0.5000000000000000    0.0000000000000000    0.5000000000000000 Be
   0.5000000000000000    0.5000000000000000    0.0000000000000000 Be
   0.0000000000000000    0.5000000000000000    0.0000000000000000 Be
   0.0000000000000000    0.3482562500000000    0.6517437500000000 Be
   0.0000000000000000    0.6517437500000000    0.3482562500000000 Be
   0.6528936200000000    0.3477717500000000    0.3477717500000000 Be
   0.3471063800000000    0.6522282500000000    0.6522282500000000 Be
   0.5000000000000000    0.7854109300000000    0.2145890700000000 Be
   0.5000000000000000    0.2145890700000000    0.7854109300000000 Be
   0.7142176800000000    0.7859482500000000    0.7859482500000000 Be
   0.2857823200000000    0.2140517500000000    0.2140517500000000 Be
