Li1 O8
1.0
      4.0642890186       0.0000000000       2.9374833793
      2.1400264836       4.2285778576       2.3123594210
      0.0000000000       0.0000000000       5.2732901625
Li O
1 8
direct
   0.4756058400000000    0.7955574800000000    0.7955574800000000 Li
   0.8336087000000000    0.3537575200000000    0.8021856900000000 O
   0.1642027000000000    0.2330576100000000    0.6647376200000000 O
   0.1642027000000000    0.6647376200000000    0.2330576100000000 O
   0.8336087000000000    0.8021856900000000    0.3537575200000000 O
   0.8311732300000000    0.3088275600000000    0.3088275600000000 O
   0.1629643200000000    0.7182304800000000    0.7182304800000000 O
   0.1517542800000000    0.1857258500000000    0.1857258500000000 O
   0.8412125300000000    0.8426821900000000    0.8426821900000000 O
