Li2 Si2
1.0
      2.8572731417       0.0000000000       1.6496474175
      0.9524243806       2.6938629523       1.6496474175
      0.0000000000       0.0000000000       3.2992948350
Li Si
2 2
direct
   0.0000000000000000    0.0000000000000000    0.0000000000000000 Li
   0.2500000000000000    0.2500000000000000    0.2500000000000000 Li
   0.7500000000000000    0.7500000000000000    0.7500000000000000 Si
   0.5000000000000000    0.5000000000000000    0.5000000000000000 Si
