Li2 Si2
1.0
      3.6192126461       0.0000000000       2.0895533955
      1.2064042154       3.4122264062       2.0895533955
      0.0000000000       0.0000000000       4.1791067910
Li Si
2 2
direct
   0.0000000000000000    0.0000000000000000    0.0000000000000000 Li
   0.2500000000000000    0.2500000000000000    0.2500000000000000 Li
   0.7500000000000000    0.7500000000000000    0.7500000000000000 Si
   0.5000000000000000    0.5000000000000000    0.5000000000000000 Si
