Li1 Hg1
1.0
      3.1362653050       0.0000000000       0.0000000000
     -0.0000000000       3.1362653050       0.0000000000
      0.0000000000       0.0000000000       3.1362653050
Li Hg
1 1
direct
   0.5000000000000000    0.5000000000000000    0.5000000000000000 Li
   0.0000000000000000    0.0000000000000000    0.0000000000000000 Hg
