Cu2 O2
1.0
      2.6436941579       0.0000000000       0.0834970905
      0.1174212008       2.6410852053       0.0834970905
      0.0000000000       0.0000000000       4.6446488370
Cu O
2 2
direct
   0.0000000000000000    0.5000000000000000    0.5000000000000000 Cu
   0.5000000000000000    0.0000000000000000    0.0000000000000000 Cu
   0.4861280000000000    0.5138720000000000    0.7500000000000000 O
   0.5138720000000000    0.4861280000000000    0.2500000000000000 O
