Cu2 O2
1.0
      2.3499503625       0.0000000000       0.0742196360
      0.1043744007       2.3476312936       0.0742196360
      0.0000000000       0.0000000000       4.1285767440
Cu O
2 2
direct
   0.0000000000000000    0.5000000000000000    0.5000000000000000 Cu
   0.5000000000000000    0.0000000000000000    0.0000000000000000 Cu
   0.4861280000000000    0.5138720000000000    0.7500000000000000 O
   0.5138720000000000    0.4861280000000000    0.2500000000000000 O
