Cu2 O2
1.0
      2.4968222602       0.0000000000       0.0788583632
      0.1108978007       2.4943582495       0.0788583632
      0.0000000000       0.0000000000       4.3866127905
Cu O
2 2
direct
   0.0000000000000000    0.5000000000000000    0.5000000000000000 Cu
   0.5000000000000000    0.0000000000000000    0.0000000000000000 Cu
   0.4861280000000000    0.5138720000000000    0.7500000000000000 O
   0.5138720000000000    0.4861280000000000    0.2500000000000000 O
