Cu2 O2
1.0
      2.2030784649       0.0000000000       0.0695809087
      0.0978510006       2.2009043378       0.0695809087
      0.0000000000       0.0000000000       3.8705406975
Cu O
2 2
direct
   0.0000000000000000    0.5000000000000000    0.5000000000000000 Cu
   0.5000000000000000    0.0000000000000000    0.0000000000000000 Cu
   0.4861280000000000    0.5138720000000000    0.7500000000000000 O
   0.5138720000000000    0.4861280000000000    0.2500000000000000 O
