Li2 Cl2
1.0
      3.1399059360       0.0000000000       0.0000000000
     -1.5699533012       2.7192381137       0.0000000000
      0.0000000000       0.0000000000       5.0857288000
Li Cl
2 2
direct
   0.0000000000000000    0.0000000000000000    0.3760170000000000 Li
   0.3333333333333333    0.6666666666666666    0.8760170000000000 Li
   0.0000000000000000    0.0000000000000000    0.9989840000000000 Cl
   0.3333333333333333    0.6666666666666666    0.4989830000000000 Cl
