Li2 Ga2
1.0
      3.3959988008       0.0000000000       1.9606815006
      1.1320001991       3.2017796967       1.9606814979
      0.0000000000       0.0000000000       3.9213621000
Li Ga
2 2
direct
   0.6250000000000000    0.6250000000000000    0.6250000000000000 Li
   0.3750000000000000    0.3750000000000000    0.3750000000000000 Li
   0.1250000000000000    0.1250000000000000    0.1250000000000000 Ga
   0.8750000000000000    0.8750000000000000    0.8750000000000000 Ga
