Li2 Ga2
1.0
      3.5846654008       0.0000000000       2.0696082507
      1.1948890991       3.3796563465       2.0696082477
      0.0000000000       0.0000000000       4.1392155500
Li Ga
2 2
direct
   0.6250000000000000    0.6250000000000000    0.6250000000000000 Li
   0.3750000000000000    0.3750000000000000    0.3750000000000000 Li
   0.1250000000000000    0.1250000000000000    0.1250000000000000 Ga
   0.8750000000000000    0.8750000000000000    0.8750000000000000 Ga
