Li2 Ga2
1.0
      3.0186656007       0.0000000000       1.7428280006
      1.0062223992       2.8460263971       1.7428279981
      0.0000000000       0.0000000000       3.4856552000
Li Ga
2 2
direct
   0.6250000000000000    0.6250000000000000    0.6250000000000000 Li
   0.3750000000000000    0.3750000000000000    0.3750000000000000 Li
   0.1250000000000000    0.1250000000000000    0.1250000000000000 Ga
   0.8750000000000000    0.8750000000000000    0.8750000000000000 Ga
