Tm6 Mn23
1.0
      6.1958336592       0.0000000000       3.5771662310
      2.0652778864       5.8414879940       3.5771662310
      0.0000000000       0.0000000000       7.1543324620
Tm Mn
6 23
direct
   0.7043710000000000    0.7043710000000000    0.2956290000000000 Tm
   0.2956290000000000    0.7043710000000000    0.2956290000000000 Tm
   0.7043710000000000    0.2956290000000000    0.2956290000000000 Tm
   0.2956290000000000    0.2956290000000000    0.7043710000000000 Tm
   0.7043710000000000    0.2956290000000000    0.7043710000000000 Tm
   0.2956290000000000    0.7043710000000000    0.7043710000000000 Tm
   0.0000000000000000    0.0000000000000000    0.0000000000000000 Mn
   0.0000000000000000    0.0000000000000000    0.5000000000000000 Mn
   0.5000000000000000    0.0000000000000000    0.5000000000000000 Mn
   0.0000000000000000    0.5000000000000000    0.5000000000000000 Mn
   0.5000000000000000    0.5000000000000000    0.0000000000000000 Mn
   0.0000000000000000    0.5000000000000000    0.0000000000000000 Mn
   0.5000000000000000    0.0000000000000000    0.0000000000000000 Mn
   0.8787110000000000    0.8787110000000000    0.3638670000000000 Mn
   0.8787110000000000    0.3638670000000000    0.8787110000000000 Mn
   0.3638670000000000    0.8787110000000000    0.8787110000000000 Mn
   0.8787110000000000    0.8787110000000000    0.8787110000000000 Mn
   0.1212890000000000    0.1212890000000000    0.6361329999999999 Mn
   0.1212890000000000    0.6361329999999999    0.1212890000000000 Mn
   0.6361329999999999    0.1212890000000000    0.1212890000000000 Mn
   0.1212890000000000    0.1212890000000000    0.1212890000000000 Mn
   0.6768110000000001    0.6768110000000001    0.9695680000000000 Mn
   0.6768110000000001    0.9695680000000000    0.6768110000000001 Mn
   0.9695680000000000    0.6768110000000001    0.6768110000000001 Mn
   0.6768110000000001    0.6768110000000001    0.6768110000000001 Mn
   0.3231890000000000    0.3231890000000000    0.0304320000000000 Mn
   0.3231890000000000    0.0304320000000000    0.3231890000000000 Mn
   0.0304320000000000    0.3231890000000000    0.3231890000000000 Mn
   0.3231890000000000    0.3231890000000000    0.3231890000000000 Mn
