Li1 Pb3
1.0
      3.9392584019       0.0000000000      -3.6208513959
     -0.7594923616       3.8653496749      -3.6208513959
      0.0000000000       0.0000000000       5.3505440460
Li Pb
1 3
direct
   0.0000000000000000    0.0000000000000000    0.0000000000000000 Li
   0.7500000000000000    0.2500000000000000    0.5000000000000000 Pb
   0.2500000000000000    0.7500000000000000    0.5000000000000000 Pb
   0.5000000000000000    0.5000000000000000    0.0000000000000000 Pb
