Li3 Hg1
1.0
      3.7853240003       0.0000000000      -2.1289707380
     -1.2949205190       3.5569451271      -2.1289707380
      0.0000000000       0.0000000000       4.3429476385
Li Hg
3 1
direct
   0.7500000000000000    0.2500000000000000    0.5000000000000000 Li
   0.2500000000000000    0.7500000000000000    0.5000000000000000 Li
   0.5000010000000000    0.5000010000000000    0.0000000000000000 Li
   0.0000000000000000    0.0000000000000000    0.0000000000000000 Hg
