Li3 Hg1
1.0
      3.1876412634       0.0000000000      -1.7928174636
     -1.0904593844       2.9953222123      -1.7928174636
      0.0000000000       0.0000000000       3.6572190640
Li Hg
3 1
direct
   0.7500000000000000    0.2500000000000000    0.5000000000000000 Li
   0.2500000000000000    0.7500000000000000    0.5000000000000000 Li
   0.5000010000000000    0.5000010000000000    0.0000000000000000 Li
   0.0000000000000000    0.0000000000000000    0.0000000000000000 Hg
