Li2 Yb6
1.0
      5.7569453055       0.0000000000       0.0000000000
     -2.8784722290       4.9856611274       0.0000000000
      0.0000000000       0.0000000000       4.7770580125
Li Yb
2 6
direct
   0.3333333333333333    0.6666666666666666    0.7500000000000000 Li
   0.6666666666666666    0.3333333333333333    0.2500000000000000 Li
   0.8320364300000000    0.1679635700000000    0.7500000000000000 Yb
   0.3359261500000000    0.1679635700000000    0.7500000000000000 Yb
   0.8320364300000000    0.6640738500000000    0.7500000000000000 Yb
   0.1679635700000000    0.8320364300000000    0.2500000000000000 Yb
   0.6640738500000000    0.8320364300000000    0.2500000000000000 Yb
   0.1679635700000000    0.3359261500000000    0.2500000000000000 Yb
