Lu2 Zn17
1.0
      5.2844888847       0.0000000000       0.6677315208
      0.5886682235       5.2515977027       0.6677306920
      0.0000000000       0.0000000000       5.3265077600
Lu Zn
2 17
direct
   0.6648477800000000    0.6648477800000000    0.6648477800000000 Lu
   0.3351522200000000    0.3351522200000000    0.3351522200000000 Lu
   0.3523385800000000    0.3523385800000000    0.8383283000000000 Zn
   0.3523385800000000    0.8383283000000000    0.3523385800000000 Zn
   0.1007476600000000    0.1007476600000000    0.1007476600000000 Zn
   0.8992523400000000    0.8992523400000000    0.8992523400000000 Zn
   0.0000000000000000    0.0000000000000000    0.5000000000000000 Zn
   0.5000000000000000    0.0000000000000000    0.0000000000000000 Zn
   0.0000000000000000    0.5000000000000000    0.0000000000000000 Zn
   0.7014275500000000    0.2985724500000000    0.0000000000000000 Zn
   0.0000000000000000    0.7014275500000000    0.2985724500000000 Zn
   0.2985724500000000    0.0000000000000000    0.7014275500000000 Zn
   0.2985724500000000    0.7014275500000000    0.0000000000000000 Zn
   0.0000000000000000    0.2985724500000000    0.7014275500000000 Zn
   0.7014275500000000    0.0000000000000000    0.2985724500000000 Zn
   0.6476614200000000    0.1616717000000000    0.6476614200000000 Zn
   0.6476614200000000    0.6476614200000000    0.1616717000000000 Zn
   0.1616717000000000    0.6476614200000000    0.6476614200000000 Zn
   0.8383283000000000    0.3523385800000000    0.3523385800000000 Zn
