Li1 B11
1.0
      3.6243600251       0.0000000000       2.4625179752
      1.3040137753       3.3816465908       2.4625179752
      0.0000000000       0.0000000000       4.3817780160
Li B
1 11
direct
   0.4633700000000000    0.4633700000000000    0.4633700000000000 Li
   0.3749440000000000    0.3749440000000000    0.0158900000000000 B
   0.0158900000000000    0.3749440000000000    0.3749440000000000 B
   0.3749440000000000    0.0158900000000000    0.3749440000000000 B
   0.4101800000000000    0.0139310000000000    0.0139310000000000 B
   0.0139310000000000    0.4101800000000000    0.0139310000000000 B
   0.0139310000000000    0.0139310000000000    0.4101800000000000 B
   0.0319960000000000    0.0319960000000000    0.0319960000000000 B
   0.7779590000000000    0.7779590000000000    0.7779590000000000 B
   0.4137410000000000    0.7946720000000000    0.7946720000000000 B
   0.7946720000000000    0.4137410000000000    0.7946720000000000 B
   0.7946720000000000    0.7946720000000000    0.4137410000000000 B
