Cu6 F2
1.0
      4.1593228960       0.0000000000       0.0000000000
     -2.0796611418       3.6020794672       0.0000000000
      0.0000000000       0.0000000000       3.2837800000
Cu F
6 2
direct
   0.1633230000000000    0.3266470000000000    0.2500000000000000 Cu
   0.6733530000000000    0.8366770000000000    0.2500000000000000 Cu
   0.1633230000000000    0.8366770000000000    0.2500000000000000 Cu
   0.8366770000000000    0.6733530000000000    0.7500000000000000 Cu
   0.3266470000000000    0.1633230000000000    0.7500000000000000 Cu
   0.8366770000000000    0.1633230000000000    0.7500000000000000 Cu
   0.3333333333333333    0.6666666666666666    0.7500000000000000 F
   0.6666666666666666    0.3333333333333333    0.2500000000000000 F
