K6 Ce2
1.0
      8.9400759230       0.0000000000       0.0000000000
     -4.4700382804       7.7423326770       0.0000000000
      0.0000000000       0.0000000000       6.9482451000
K Ce
6 2
direct
   0.1698870000000000    0.3397740000000000    0.2500000000000000 K
   0.6602260000000000    0.8301130000000000    0.2500000000000000 K
   0.1698870000000000    0.8301130000000000    0.2500000000000000 K
   0.8301130000000000    0.6602260000000000    0.7500000000000000 K
   0.3397740000000000    0.1698870000000000    0.7500000000000000 K
   0.8301130000000000    0.1698870000000000    0.7500000000000000 K
   0.3333333333333333    0.6666666666666666    0.7500000000000000 Ce
   0.6666666666666666    0.3333333333333333    0.2500000000000000 Ce
