Al1 Cu3
1.0
      2.9099013360       0.0000000000       0.0000000000
     -0.0000000000       2.9099013360       0.0000000000
      0.0000000000       0.0000000000       2.9099013360
Al Cu
1 3
direct
   0.0000000000000000    0.0000000000000000    0.0000000000000000 Al
   0.5000000000000000    0.5000000000000000    0.0000000000000000 Cu
   0.5000000000000000    0.0000000000000000    0.5000000000000000 Cu
   0.0000000000000000    0.5000000000000000    0.5000000000000000 Cu
