Cu2 O2
1.0
      2.3462966480       0.0000000000       0.0000000000
     -0.1837991701       2.3390865366       0.0000000000
      0.0000000000       0.0000000000       4.1247424000
Cu O
2 2
direct
   0.0000000000000000    0.5000000000000000    0.5000000000000000 Cu
   0.5000000000000000    0.0000000000000000    0.0000000000000000 Cu
   0.5000000000000000    0.5000000000000000    0.7500000000000000 O
   0.5000000000000000    0.5000000000000000    0.2500000000000000 O
