Cu2 O2
1.0
      2.4929401885       0.0000000000       0.0000000000
     -0.1952866182       2.4852794451       0.0000000000
      0.0000000000       0.0000000000       4.3825388000
Cu O
2 2
direct
   0.0000000000000000    0.5000000000000000    0.5000000000000000 Cu
   0.5000000000000000    0.0000000000000000    0.0000000000000000 Cu
   0.5000000000000000    0.5000000000000000    0.7500000000000000 O
   0.5000000000000000    0.5000000000000000    0.2500000000000000 O
