Cu2 O2
1.0
      2.1996531075       0.0000000000       0.0000000000
     -0.1723117219       2.1928936280       0.0000000000
      0.0000000000       0.0000000000       3.8669460000
Cu O
2 2
direct
   0.0000000000000000    0.5000000000000000    0.5000000000000000 Cu
   0.5000000000000000    0.0000000000000000    0.0000000000000000 Cu
   0.5000000000000000    0.5000000000000000    0.7500000000000000 O
   0.5000000000000000    0.5000000000000000    0.2500000000000000 O
