Cu2 O2
1.0
      2.7862272695       0.0000000000       0.0000000000
     -0.2182615145       2.7776652622       0.0000000000
      0.0000000000       0.0000000000       4.8981316000
Cu O
2 2
direct
   0.0000000000000000    0.5000000000000000    0.5000000000000000 Cu
   0.5000000000000000    0.0000000000000000    0.0000000000000000 Cu
   0.5000000000000000    0.5000000000000000    0.7500000000000000 O
   0.5000000000000000    0.5000000000000000    0.2500000000000000 O
