Cu2 O2
1.0
      2.6395837290       0.0000000000       0.0000000000
     -0.2067740663       2.6314723536       0.0000000000
      0.0000000000       0.0000000000       4.6403352000
Cu O
2 2
direct
   0.0000000000000000    0.5000000000000000    0.5000000000000000 Cu
   0.5000000000000000    0.0000000000000000    0.0000000000000000 Cu
   0.5000000000000000    0.5000000000000000    0.7500000000000000 O
   0.5000000000000000    0.5000000000000000    0.2500000000000000 O
