Li1 Mg1
1.0
      2.4867980160       0.0000000000       0.0000000000
     -1.2434059978       2.1536262203       0.0000000000
      0.0000000000       0.0000000000       4.0203741440
Li Mg
1 1
direct
   0.0000000000000000    0.0000000000000000    0.0000000000000000 Li
   0.6666666666666666    0.3333333333333333    0.5000000000000000 Mg
