Li3 Cd1
1.0
      2.6480029580       0.0000000000       7.7029158998
      1.2870385973       2.3141848056       7.7029158998
      0.0000000000       0.0000000000       8.1453565145
Li Cd
3 1
direct
   0.2511640000000000    0.2511640000000000    0.2511640000000000 Li
   0.5000000000000000    0.5000000000000000    0.5000000000000000 Li
   0.7488359999999999    0.7488359999999999    0.7488359999999999 Li
   0.0000000000000000    0.0000000000000000    0.0000000000000000 Cd
