Li3 Cd1
1.0
      2.4922380781       0.0000000000       7.2498031998
      1.2113304445       2.1780562876       7.2498031998
      0.0000000000       0.0000000000       7.6662178960
Li Cd
3 1
direct
   0.2511640000000000    0.2511640000000000    0.2511640000000000 Li
   0.5000000000000000    0.5000000000000000    0.5000000000000000 Li
   0.7488359999999999    0.7488359999999999    0.7488359999999999 Li
   0.0000000000000000    0.0000000000000000    0.0000000000000000 Cd
