Li3 Cd1
1.0
      2.3364731982       0.0000000000       6.7966904998
      1.1356222918       2.0419277696       6.7966904998
      0.0000000000       0.0000000000       7.1870792775
Li Cd
3 1
direct
   0.2511640000000000    0.2511640000000000    0.2511640000000000 Li
   0.5000000000000000    0.5000000000000000    0.5000000000000000 Li
   0.7488359999999999    0.7488359999999999    0.7488359999999999 Li
   0.0000000000000000    0.0000000000000000    0.0000000000000000 Cd
