Li3 Cd1
1.0
      2.9595327177       0.0000000000       8.6091412998
      1.4384549029       2.5864418416       8.6091412998
      0.0000000000       0.0000000000       9.1036337515
Li Cd
3 1
direct
   0.2511640000000000    0.2511640000000000    0.2511640000000000 Li
   0.5000000000000000    0.5000000000000000    0.5000000000000000 Li
   0.7488359999999999    0.7488359999999999    0.7488359999999999 Li
   0.0000000000000000    0.0000000000000000    0.0000000000000000 Cd
