Cu3 Te1
1.0
      3.7493289000       0.0000000000       0.0000000000
     -0.0000000000       3.7493289000       0.0000000000
      0.0000000000       0.0000000000       3.7493289000
Cu Te
3 1
direct
   0.0000000000000000    0.5000000000000000    0.5000000000000000 Cu
   0.5000000000000000    0.0000000000000000    0.5000000000000000 Cu
   0.5000000000000000    0.5000000000000000    0.0000000000000000 Cu
   0.0000000000000000    0.0000000000000000    0.0000000000000000 Te
