Mn1 Ga1
1.0
      2.4726638700       0.0000000000       0.0000000000
     -1.2363322011       2.1413895728       0.0000000000
      0.0000000000       0.0000000000       3.7069542000
Mn Ga
1 1
direct
   0.0000000000000000    0.0000000000000000    0.0000000000000000 Mn
   0.3333333333333333    0.6666666666666666    0.5000000000000000 Ga
