Mn1 Ga1
1.0
      2.6100340850       0.0000000000       0.0000000000
     -1.3050173234       2.2603556602       0.0000000000
      0.0000000000       0.0000000000       3.9128961000
Mn Ga
1 1
direct
   0.0000000000000000    0.0000000000000000    0.0000000000000000 Mn
   0.3333333333333333    0.6666666666666666    0.5000000000000000 Ga
