Mn1 Ga1
1.0
      2.3352936550       0.0000000000       0.0000000000
     -1.1676470788       2.0224234854       0.0000000000
      0.0000000000       0.0000000000       3.5010123000
Mn Ga
1 1
direct
   0.0000000000000000    0.0000000000000000    0.0000000000000000 Mn
   0.3333333333333333    0.6666666666666666    0.5000000000000000 Ga
