Mn1 Ga1
1.0
      2.1979234400       0.0000000000       0.0000000000
     -1.0989619565       1.9034573980       0.0000000000
      0.0000000000       0.0000000000       3.2950704000
Mn Ga
1 1
direct
   0.0000000000000000    0.0000000000000000    0.0000000000000000 Mn
   0.3333333333333333    0.6666666666666666    0.5000000000000000 Ga
