Mn1 Ga1
1.0
      2.0605532250       0.0000000000       0.0000000000
     -1.0302768343       1.7844913107       0.0000000000
      0.0000000000       0.0000000000       3.0891285000
Mn Ga
1 1
direct
   0.0000000000000000    0.0000000000000000    0.0000000000000000 Mn
   0.3333333333333333    0.6666666666666666    0.5000000000000000 Ga
