Li7 Pb2
1.0
      4.0008688080       0.0000000000       0.0000000000
     -2.0004339810       3.4648534054       0.0000000000
      0.0000000000       0.0000000000       7.2484288985
Li Pb
7 2
direct
   0.0000000000000000    0.0000000000000000    0.0000000000000000 Li
   0.0000000000000000    0.0000000000000000    0.3209198000000000 Li
   0.0000000000000000    0.0000000000000000    0.6790802000000000 Li
   0.3333333333333333    0.6666666666666666    0.5772938900000000 Li
   0.6666666666666666    0.3333333333333333    0.4227061100000000 Li
   0.3333333333333333    0.6666666666666666    0.8981654000000000 Li
   0.6666666666666666    0.3333333333333333    0.1018346000000000 Li
   0.3333333333333333    0.6666666666666666    0.2370199900000000 Pb
   0.6666666666666666    0.3333333333333333    0.7629800100000000 Pb
