Li1 Mg2
1.0
      2.7630679440       0.0000000000       0.0000000000
     -1.3815347768       4.1202718922       1.3953524848
      0.0000000000       0.0000000000       2.7719338400
Li Mg
1 2
direct
   0.6948244700000000    0.3896459400000000    0.2134089000000000 Li
   0.0361410600000000    0.0722811200000000    0.8719120400000000 Mg
   0.3537524700000000    0.7075049400000000    0.5550620500000000 Mg
