Li1 Mg2
1.0
      3.1084514370       0.0000000000       0.0000000000
     -1.5542266239       4.6353058787       1.5697715454
      0.0000000000       0.0000000000       3.1184255700
Li Mg
1 2
direct
   0.6948244700000000    0.3896459400000000    0.2134089000000000 Li
   0.0361410600000000    0.0722811200000000    0.8719120400000000 Mg
   0.3537524700000000    0.7075049400000000    0.5550620500000000 Mg
