Mn1 Au3
1.0
      2.8573113137       0.0000000000       8.0082011328
      1.3858694325       2.4987184434       8.0082011328
      0.0000000000       0.0000000000       8.5026774695
Mn Au
1 3
direct
   0.0000000000000000    0.0000000000000000    0.0000000000000000 Mn
   0.2560150000000000    0.2560150000000000    0.2560150000000000 Au
   0.5000000000000000    0.5000000000000000    0.5000000000000000 Au
   0.7439850000000000    0.7439850000000000    0.7439850000000000 Au
