Mn1 Au3
1.0
      2.2557720897       0.0000000000       6.3222640522
      1.0941074467       1.9726724553       6.3222640522
      0.0000000000       0.0000000000       6.7126401075
Mn Au
1 3
direct
   0.0000000000000000    0.0000000000000000    0.0000000000000000 Mn
   0.2560150000000000    0.2560150000000000    0.2560150000000000 Au
   0.5000000000000000    0.5000000000000000    0.5000000000000000 Au
   0.7439850000000000    0.7439850000000000    0.7439850000000000 Au
