Mn1 Au3
1.0
      2.5565417017       0.0000000000       7.1652325925
      1.2399884396       2.2356954493       7.1652325925
      0.0000000000       0.0000000000       7.6076587885
Mn Au
1 3
direct
   0.0000000000000000    0.0000000000000000    0.0000000000000000 Mn
   0.2560150000000000    0.2560150000000000    0.2560150000000000 Au
   0.5000000000000000    0.5000000000000000    0.5000000000000000 Au
   0.7439850000000000    0.7439850000000000    0.7439850000000000 Au
