Mn1 Au3
1.0
      2.4061568957       0.0000000000       6.7437483223
      1.1670479432       2.1041839523       6.7437483223
      0.0000000000       0.0000000000       7.1601494480
Mn Au
1 3
direct
   0.0000000000000000    0.0000000000000000    0.0000000000000000 Mn
   0.2560150000000000    0.2560150000000000    0.2560150000000000 Au
   0.5000000000000000    0.5000000000000000    0.5000000000000000 Au
   0.7439850000000000    0.7439850000000000    0.7439850000000000 Au
