Mn1 Au3
1.0
      2.7069265077       0.0000000000       7.5867168626
      1.3129289361       2.3672069463       7.5867168626
      0.0000000000       0.0000000000       8.0551681290
Mn Au
1 3
direct
   0.0000000000000000    0.0000000000000000    0.0000000000000000 Mn
   0.2560150000000000    0.2560150000000000    0.2560150000000000 Au
   0.5000000000000000    0.5000000000000000    0.5000000000000000 Au
   0.7439850000000000    0.7439850000000000    0.7439850000000000 Au
