Li3 Pm1
1.0
      4.2387804563       0.0000000000       2.4472610375
      1.4129268188       3.9963605395       2.4472610375
      0.0000000000       0.0000000000       4.8945220750
Li Pm
3 1
direct
   0.2500000000000000    0.2500000000000000    0.2500000000000000 Li
   0.7500000000000000    0.7500000000000000    0.7500000000000000 Li
   0.5000000000000000    0.5000000000000000    0.5000000000000000 Li
   0.0000000000000000    0.0000000000000000    0.0000000000000000 Pm
