Li3 Pm1
1.0
      3.5694993316       0.0000000000       2.0608514000
      1.1898331105       3.3653562438       2.0608514000
      0.0000000000       0.0000000000       4.1217028000
Li Pm
3 1
direct
   0.2500000000000000    0.2500000000000000    0.2500000000000000 Li
   0.7500000000000000    0.7500000000000000    0.7500000000000000 Li
   0.5000000000000000    0.5000000000000000    0.5000000000000000 Li
   0.0000000000000000    0.0000000000000000    0.0000000000000000 Pm
