Li3 Sb1
1.0
      3.8075341177       0.0000000000       2.1982799556
      1.2691777214       3.5897771475       2.1982799535
      0.0000000000       0.0000000000       4.3965608790
Li Sb
3 1
direct
   0.5000000000000000    0.5000000000000000    0.5000000000000000 Li
   0.2500000000000000    0.2500000000000000    0.2500000000000000 Li
   0.7500000000000000    0.7500000000000000    0.7500000000000000 Li
   0.0000000000000000    0.0000000000000000    0.0000000000000000 Sb
