Li3 Sb1
1.0
      3.6071375852       0.0000000000       2.0825810105
      1.2023788940       3.4008415081       2.0825810086
      0.0000000000       0.0000000000       4.1651629380
Li Sb
3 1
direct
   0.5000000000000000    0.5000000000000000    0.5000000000000000 Li
   0.2500000000000000    0.2500000000000000    0.2500000000000000 Li
   0.7500000000000000    0.7500000000000000    0.7500000000000000 Li
   0.0000000000000000    0.0000000000000000    0.0000000000000000 Sb
