Li3 Sb1
1.0
      3.2063445202       0.0000000000       1.8511831205
      1.0687812391       3.0229702294       1.8511831187
      0.0000000000       0.0000000000       3.7023670560
Li Sb
3 1
direct
   0.5000000000000000    0.5000000000000000    0.5000000000000000 Li
   0.2500000000000000    0.2500000000000000    0.2500000000000000 Li
   0.7500000000000000    0.7500000000000000    0.7500000000000000 Li
   0.0000000000000000    0.0000000000000000    0.0000000000000000 Sb
