Li3 Sb1
1.0
      3.4067410527       0.0000000000       1.9668820655
      1.1355800665       3.2119058688       1.9668820637
      0.0000000000       0.0000000000       3.9337649970
Li Sb
3 1
direct
   0.5000000000000000    0.5000000000000000    0.5000000000000000 Li
   0.2500000000000000    0.2500000000000000    0.2500000000000000 Li
   0.7500000000000000    0.7500000000000000    0.7500000000000000 Li
   0.0000000000000000    0.0000000000000000    0.0000000000000000 Sb
