Li3 Ag1
1.0
      3.3977753496       0.0000000000      -2.5618223363
     -0.8440697206       3.2912647467      -2.5618223363
      0.0000000000       0.0000000000       4.2553273680
Li Ag
3 1
direct
   0.2500000000000000    0.7500010000000000    0.5000010000000000 Li
   0.7500010000000000    0.2500000000000000    0.5000010000000000 Li
   0.5000000000000000    0.5000000000000000    0.0000000000000000 Li
   0.0000000000000000    0.0000000000000000    0.0000000000000000 Ag
