Li3 Ag1
1.0
      3.2090100524       0.0000000000      -2.4194988731
     -0.7971769583       3.1084167052      -2.4194988731
      0.0000000000       0.0000000000       4.0189202920
Li Ag
3 1
direct
   0.2500000000000000    0.7500010000000000    0.5000010000000000 Li
   0.7500010000000000    0.2500000000000000    0.5000010000000000 Li
   0.5000000000000000    0.5000000000000000    0.0000000000000000 Li
   0.0000000000000000    0.0000000000000000    0.0000000000000000 Ag
