Li3 Ag1
1.0
      3.0202447552       0.0000000000      -2.2771754100
     -0.7502841960       2.9255686638      -2.2771754100
      0.0000000000       0.0000000000       3.7825132160
Li Ag
3 1
direct
   0.2500000000000000    0.7500010000000000    0.5000010000000000 Li
   0.7500010000000000    0.2500000000000000    0.5000010000000000 Li
   0.5000000000000000    0.5000000000000000    0.0000000000000000 Li
   0.0000000000000000    0.0000000000000000    0.0000000000000000 Ag
