Cu2 As3
1.0
      3.6515997000       0.0000000000       0.0000000000
     -1.8258002998       3.1623776995       0.0000000000
      0.0000000000       0.0000000000       5.4811908000
Cu As
2 3
direct
   0.3333333333333333    0.6666666666666666    0.7830310000000000 Cu
   0.6666666666666666    0.3333333333333333    0.2169690000000000 Cu
   0.0000000000000000    0.0000000000000000    0.0000000000000000 As
   0.3333333333333333    0.6666666666666666    0.3506620000000000 As
   0.6666666666666666    0.3333333333333333    0.6493380000000000 As
