Cu2 As3
1.0
      3.8544663500       0.0000000000       0.0000000000
     -1.9272336497       3.3380653495       0.0000000000
      0.0000000000       0.0000000000       5.7857014000
Cu As
2 3
direct
   0.3333333333333333    0.6666666666666666    0.7830310000000000 Cu
   0.6666666666666666    0.3333333333333333    0.2169690000000000 Cu
   0.0000000000000000    0.0000000000000000    0.0000000000000000 As
   0.3333333333333333    0.6666666666666666    0.3506620000000000 As
   0.6666666666666666    0.3333333333333333    0.6493380000000000 As
