Cu2 As3
1.0
      3.4487330500       0.0000000000       0.0000000000
     -1.7243669498       2.9866900495       0.0000000000
      0.0000000000       0.0000000000       5.1766802000
Cu As
2 3
direct
   0.3333333333333333    0.6666666666666666    0.7830310000000000 Cu
   0.6666666666666666    0.3333333333333333    0.2169690000000000 Cu
   0.0000000000000000    0.0000000000000000    0.0000000000000000 As
   0.3333333333333333    0.6666666666666666    0.3506620000000000 As
   0.6666666666666666    0.3333333333333333    0.6493380000000000 As
