Li2 N1
1.0
      2.3735281286       0.0000000000       1.3703571040
      0.7911760429       2.2377837801       1.3703571040
      0.0000000000       0.0000000000       2.7407142080
Li N
2 1
direct
   0.2500000000000000    0.2500000000000000    0.2500000000000000 Li
   0.7500000000000000    0.7500000000000000    0.7500000000000000 Li
   0.0000000000000000    0.0000000000000000    0.0000000000000000 N
