Li2 N1
1.0
      2.6702191447       0.0000000000       1.5416517420
      0.8900730482       2.5175067526       1.5416517420
      0.0000000000       0.0000000000       3.0833034840
Li N
2 1
direct
   0.2500000000000000    0.2500000000000000    0.2500000000000000 Li
   0.7500000000000000    0.7500000000000000    0.7500000000000000 Li
   0.0000000000000000    0.0000000000000000    0.0000000000000000 N
