Li2 N1
1.0
      2.8185646528       0.0000000000       1.6272990610
      0.9395215509       2.6573682389       1.6272990610
      0.0000000000       0.0000000000       3.2545981220
Li N
2 1
direct
   0.2500000000000000    0.2500000000000000    0.2500000000000000 Li
   0.7500000000000000    0.7500000000000000    0.7500000000000000 Li
   0.0000000000000000    0.0000000000000000    0.0000000000000000 N
