Cu3 As1
1.0
      3.3326181090       0.0000000000       0.0000000000
     -0.0000000000       3.3326181090       0.0000000000
      0.0000000000       0.0000000000       3.3326181090
Cu As
3 1
direct
   0.0000000000000000    0.5000000000000000    0.5000000000000000 Cu
   0.5000000000000000    0.0000000000000000    0.5000000000000000 Cu
   0.5000000000000000    0.5000000000000000    0.0000000000000000 Cu
   0.0000000000000000    0.0000000000000000    0.0000000000000000 As
