Cu3 As1
1.0
      2.9623272080       0.0000000000       0.0000000000
     -0.0000000000       2.9623272080       0.0000000000
      0.0000000000       0.0000000000       2.9623272080
Cu As
3 1
direct
   0.0000000000000000    0.5000000000000000    0.5000000000000000 Cu
   0.5000000000000000    0.0000000000000000    0.5000000000000000 Cu
   0.5000000000000000    0.5000000000000000    0.0000000000000000 Cu
   0.0000000000000000    0.0000000000000000    0.0000000000000000 As
