Li2 C1
1.0
      2.5433316556       0.0000000000       1.4683932160
      0.8477772185       2.3978760806       1.4683932160
      0.0000000000       0.0000000000       2.9367864320
Li C
2 1
direct
   0.2500000000000000    0.2500000000000000    0.2500000000000000 Li
   0.7500000000000000    0.7500000000000000    0.7500000000000000 Li
   0.0000000000000000    0.0000000000000000    0.0000000000000000 C
