Li2 C1
1.0
      2.7022898841       0.0000000000       1.5601677920
      0.9007632947       2.5477433357       1.5601677920
      0.0000000000       0.0000000000       3.1203355840
Li C
2 1
direct
   0.2500000000000000    0.2500000000000000    0.2500000000000000 Li
   0.7500000000000000    0.7500000000000000    0.7500000000000000 Li
   0.0000000000000000    0.0000000000000000    0.0000000000000000 C
