Li2 C1
1.0
      2.3843734271       0.0000000000       1.3766186400
      0.7947911424       2.2480088256       1.3766186400
      0.0000000000       0.0000000000       2.7532372800
Li C
2 1
direct
   0.2500000000000000    0.2500000000000000    0.2500000000000000 Li
   0.7500000000000000    0.7500000000000000    0.7500000000000000 Li
   0.0000000000000000    0.0000000000000000    0.0000000000000000 C
