Li1 Cu3
1.0
      2.7808016698       0.0000000000      -2.5168635687
     -0.5474165408       2.7263882808      -2.5168635687
      0.0000000000       0.0000000000       3.7506612950
Li Cu
1 3
direct
   0.0000000000000000    0.0000000000000000    0.0000000000000000 Li
   0.7499990000000000    0.2500000000000000    0.4999990000000000 Cu
   0.2500000000000000    0.7499990000000000    0.4999990000000000 Cu
   0.5000010000000000    0.5000010000000000    0.0000000000000000 Cu
