Li3 Pt1
1.0
      2.7624790056       0.0000000000       1.5949179975
      0.9208263352       2.6044901836       1.5949179975
      0.0000000000       0.0000000000       3.1898359950
Li Pt
3 1
direct
   0.0000000000000000    0.0000000000000000    0.0000000000000000 Li
   0.4999990000000000    0.4999990000000000    0.4999990000000000 Li
   0.2500010000000000    0.2500010000000000    0.2500010000000000 Li
   0.7500000000000000    0.7500000000000000    0.7500000000000000 Pt
