Li3 Pt1
1.0
      2.9466442726       0.0000000000       1.7012458640
      0.9822147575       2.7781228625       1.7012458640
      0.0000000000       0.0000000000       3.4024917280
Li Pt
3 1
direct
   0.0000000000000000    0.0000000000000000    0.0000000000000000 Li
   0.4999990000000000    0.4999990000000000    0.4999990000000000 Li
   0.2500010000000000    0.2500010000000000    0.2500010000000000 Li
   0.7500000000000000    0.7500000000000000    0.7500000000000000 Pt
