Li2 Zn2
1.0
      3.1562282108       0.0000000000       1.8222484536
      1.0520757867       2.9757200013       1.8222484537
      0.0000000000       0.0000000000       3.6444977655
Li Zn
2 2
direct
   0.8750000000000000    0.8750000000000000    0.8750000000000000 Li
   0.1250000000000000    0.1250000000000000    0.1250000000000000 Li
   0.3750000000000000    0.3750000000000000    0.3750000000000000 Zn
   0.6250000000000000    0.6250000000000000    0.6250000000000000 Zn
