Li2 Zn2
1.0
      3.3418886938       0.0000000000       1.9294395391
      1.1139625976       3.1507623543       1.9294395392
      0.0000000000       0.0000000000       3.8588799870
Li Zn
2 2
direct
   0.8750000000000000    0.8750000000000000    0.8750000000000000 Li
   0.1250000000000000    0.1250000000000000    0.1250000000000000 Li
   0.3750000000000000    0.3750000000000000    0.3750000000000000 Zn
   0.6250000000000000    0.6250000000000000    0.6250000000000000 Zn
