K3 Ag1
1.0
      4.9110892000       0.0000000000       0.0000000000
     -0.0000000000       4.9110892000       0.0000000000
      0.0000000000       0.0000000000       4.9110892000
K Ag
3 1
direct
   0.5000000000000000    0.0000000000000000    0.0000000000000000 K
   0.0000000000000000    0.5000000000000000    0.0000000000000000 K
   0.0000000000000000    0.0000000000000000    0.5000000000000000 K
   0.5000000000000000    0.5000000000000000    0.5000000000000000 Ag
