Mg4 Cd8
1.0
      4.7279237860       0.0000000000       0.0000000000
     -0.0000000000       3.0448926900       0.0000000000
      0.0000000000       0.0000000000      15.2239139225
Mg Cd
4 8
direct
   0.5000000000000000    0.5000000000000000    0.3898132300000000 Mg
   0.5000000000000000    0.0000000000000000    0.2186382200000000 Mg
   0.5000000000000000    0.0000000000000000    0.8898132300000000 Mg
   0.5000000000000000    0.5000000000000000    0.7186382200000000 Mg
   0.0000000000000000    0.0000000000000000    0.9998154100000000 Cd
   0.0000000000000000    0.5000000000000000    0.1684483900000000 Cd
   0.0000000000000000    0.0000000000000000    0.3332314100000000 Cd
   0.5000000000000000    0.5000000000000000    0.0567223400000000 Cd
   0.0000000000000000    0.5000000000000000    0.4998154100000000 Cd
   0.0000000000000000    0.0000000000000000    0.6684483900000000 Cd
   0.0000000000000000    0.5000000000000000    0.8332314100000000 Cd
   0.5000000000000000    0.0000000000000000    0.5567223400000000 Cd
