Mg4 Cu2
1.0
      3.7906494014       0.0000000000      -0.9627578062
     -1.5064720020       3.0215011518      -1.9740816536
      0.0000000000       0.0000000000       3.9110005725
Mg Cu
4 2
direct
   0.5000646100000000    0.8321110800000000    0.6679545300000000 Mg
   0.4999353900000000    0.1678889200000000    0.3320454700000000 Mg
   0.1641565500000000    0.3321110800000000    0.8320454700000000 Mg
   0.8358434500000000    0.6678889200000000    0.1679545300000000 Mg
   0.0000000000000000    0.2500000000000000    0.2500000000000000 Cu
   0.0000000000000000    0.7500000000000000    0.7500000000000000 Cu
