Li1 Yb3
1.0
      4.1287019244       0.0000000000      -3.9631288758
     -0.7501383142       4.0599842475      -3.9631288758
      0.0000000000       0.0000000000       5.7229861145
Li Yb
1 3
direct
   0.0000000000000000    0.0000000000000000    0.0000000000000000 Li
   0.7500000000000000    0.2500000000000000    0.5000000000000000 Yb
   0.2500000000000000    0.7500000000000000    0.5000000000000000 Yb
   0.5000000000000000    0.5000000000000000    0.0000000000000000 Yb
