Li1 Yb3
1.0
      3.4768016205       0.0000000000      -3.3373716849
     -0.6316954225       3.4189341031      -3.3373716849
      0.0000000000       0.0000000000       4.8193567280
Li Yb
1 3
direct
   0.0000000000000000    0.0000000000000000    0.0000000000000000 Li
   0.7500000000000000    0.2500000000000000    0.5000000000000000 Yb
   0.2500000000000000    0.7500000000000000    0.5000000000000000 Yb
   0.5000000000000000    0.5000000000000000    0.0000000000000000 Yb
