Li1 Yb3
1.0
      3.2595015192       0.0000000000      -3.1287859546
     -0.5922144586       3.2052507217      -3.1287859546
      0.0000000000       0.0000000000       4.5181469325
Li Yb
1 3
direct
   0.0000000000000000    0.0000000000000000    0.0000000000000000 Li
   0.7500000000000000    0.2500000000000000    0.5000000000000000 Yb
   0.2500000000000000    0.7500000000000000    0.5000000000000000 Yb
   0.5000000000000000    0.5000000000000000    0.0000000000000000 Yb
