Cu3 Ge1
1.0
      2.4555364470       0.0000000000       0.0000000000
     -1.2277680713       2.1265570309       0.0000000000
      0.0000000000       0.0000000000       7.4425365000
Cu Ge
3 1
direct
   0.3333333333333333    0.6666666666666666    0.5000000000000000 Cu
   0.0000000000000000    0.0000000000000000    0.7423080000000000 Cu
   0.0000000000000000    0.0000000000000000    0.2576920000000000 Cu
   0.3333333333333333    0.6666666666666666    0.0000000000000000 Ge
