Cu3 Ge1
1.0
      2.0462803725       0.0000000000       0.0000000000
     -1.0231400594       1.7721308591       0.0000000000
      0.0000000000       0.0000000000       6.2021137500
Cu Ge
3 1
direct
   0.3333333333333333    0.6666666666666666    0.5000000000000000 Cu
   0.0000000000000000    0.0000000000000000    0.7423080000000000 Cu
   0.0000000000000000    0.0000000000000000    0.2576920000000000 Cu
   0.3333333333333333    0.6666666666666666    0.0000000000000000 Ge
