Li1 Hg1
1.0
      2.4759989250       0.0000000000       0.0000000000
     -0.0000000000       2.4759989250       0.0000000000
      0.0000000000       0.0000000000       2.4759989250
Li Hg
1 1
direct
   0.5000000000000000    0.5000000000000000    0.5000000000000000 Li
   0.0000000000000000    0.0000000000000000    0.0000000000000000 Hg
