Li2 Dy6
1.0
      6.3003335760       0.0000000000       0.0000000000
     -3.1501673679       5.4562485943       0.0000000000
      0.0000000000       0.0000000000       4.9638258000
Li Dy
2 6
direct
   0.6666666666666666    0.3333333333333333    0.2500000000000000 Li
   0.3333333333333333    0.6666666666666666    0.7500000000000000 Li
   0.8310130000000000    0.1689870000000000    0.7500000000000000 Dy
   0.3379750000000000    0.1689870000000000    0.7500000000000000 Dy
   0.8310130000000000    0.6620250000000000    0.7500000000000000 Dy
   0.1689870000000000    0.8310130000000000    0.2500000000000000 Dy
   0.6620250000000000    0.8310130000000000    0.2500000000000000 Dy
   0.1689870000000000    0.3379750000000000    0.2500000000000000 Dy
