Mn2 N1
1.0
      2.1182038050       0.0000000000       0.0000000000
     -1.0591017082       1.8344184177       0.0000000000
      0.0000000000       0.0000000000       3.3012487500
Mn N
2 1
direct
   0.3333333333333333    0.6666666666666666    0.2451610000000000 Mn
   0.6666666666666666    0.3333333333333333    0.7548390000000000 Mn
   0.0000000000000000    0.0000000000000000    0.5000000000000000 N
