Mn2 N1
1.0
      2.2594173920       0.0000000000       0.0000000000
     -1.1297084887       1.9567129789       0.0000000000
      0.0000000000       0.0000000000       3.5213320000
Mn N
2 1
direct
   0.3333333333333333    0.6666666666666666    0.2451610000000000 Mn
   0.6666666666666666    0.3333333333333333    0.7548390000000000 Mn
   0.0000000000000000    0.0000000000000000    0.5000000000000000 N
