Mn2 N1
1.0
      2.5418445660       0.0000000000       0.0000000000
     -1.2709220498       2.2013021013       0.0000000000
      0.0000000000       0.0000000000       3.9614985000
Mn N
2 1
direct
   0.3333333333333333    0.6666666666666666    0.2451610000000000 Mn
   0.6666666666666666    0.3333333333333333    0.7548390000000000 Mn
   0.0000000000000000    0.0000000000000000    0.5000000000000000 N
