Li2 Ga6
1.0
      4.7747519030       0.0000000000       0.0000000000
     -2.3873752204       4.1350568669       0.0000000000
      0.0000000000       0.0000000000       4.0396024920
Li Ga
2 6
direct
   0.6666666666666666    0.3333333333333333    0.2500000000000000 Li
   0.3333333333333333    0.6666666666666666    0.7500000000000000 Li
   0.8331693600000000    0.1668306400000000    0.7500000000000000 Ga
   0.3336602800000000    0.1668306400000000    0.7500000000000000 Ga
   0.8331693600000000    0.6663397200000000    0.7500000000000000 Ga
   0.1668306400000000    0.8331693600000000    0.2500000000000000 Ga
   0.6663397200000000    0.8331693600000000    0.2500000000000000 Ga
   0.1668306400000000    0.3336602800000000    0.2500000000000000 Ga
