Li6 Yb2
1.0
      4.8323932200       0.0000000000       0.0000000000
     -2.4161967232       4.1849752242       0.0000000000
      0.0000000000       0.0000000000       3.7695289275
Li Yb
6 2
direct
   0.1569086500000000    0.3138173100000000    0.2500000000000000 Li
   0.6861826900000000    0.8430913500000000    0.2500000000000000 Li
   0.1569086500000000    0.8430913500000000    0.2500000000000000 Li
   0.8430913500000000    0.6861826900000000    0.7500000000000000 Li
   0.3138173100000000    0.1569086500000000    0.7500000000000000 Li
   0.8430913500000000    0.1569086500000000    0.7500000000000000 Li
   0.3333333333333333    0.6666666666666666    0.7500000000000000 Yb
   0.6666666666666666    0.3333333333333333    0.2500000000000000 Yb
