Cu1 Br1
1.0
      2.4642751696       0.0000000000       1.4227499325
      0.8214250565       2.3233409108       1.4227499325
      0.0000000000       0.0000000000       2.8454998650
Cu Br
1 1
direct
   0.0000000000000000    0.0000000000000000    0.0000000000000000 Cu
   0.5000000000000000    0.5000000000000000    0.5000000000000000 Br
