Cu1 Br1
1.0
      2.7928451922       0.0000000000       1.6124499235
      0.9309483974       2.6331196989       1.6124499235
      0.0000000000       0.0000000000       3.2248998470
Cu Br
1 1
direct
   0.0000000000000000    0.0000000000000000    0.0000000000000000 Cu
   0.5000000000000000    0.5000000000000000    0.5000000000000000 Br
