Cu1 Br1
1.0
      3.1214152148       0.0000000000       1.8021499145
      1.0404717383       2.9428984870       1.8021499145
      0.0000000000       0.0000000000       3.6042998290
Cu Br
1 1
direct
   0.0000000000000000    0.0000000000000000    0.0000000000000000 Cu
   0.5000000000000000    0.5000000000000000    0.5000000000000000 Br
