Cu1 Br1
1.0
      2.6285601809       0.0000000000       1.5175999280
      0.8761867270       2.4782303049       1.5175999280
      0.0000000000       0.0000000000       3.0351998560
Cu Br
1 1
direct
   0.0000000000000000    0.0000000000000000    0.0000000000000000 Cu
   0.5000000000000000    0.5000000000000000    0.5000000000000000 Br
