Cu1 Br1
1.0
      2.9571302035       0.0000000000       1.7072999190
      0.9857100678       2.7880090930       1.7072999190
      0.0000000000       0.0000000000       3.4145998380
Cu Br
1 1
direct
   0.0000000000000000    0.0000000000000000    0.0000000000000000 Cu
   0.5000000000000000    0.5000000000000000    0.5000000000000000 Br
