Li3 Al2
1.0
      3.8346485928       0.0000000000       3.3466304092
      1.5211874989       3.5200171450       3.3466305457
      0.0000000000       0.0000000000       5.0896431355
Li Al
3 2
direct
   0.5977897500000000    0.5977897500000000    0.5977897500000000 Li
   0.4022102500000000    0.4022102500000000    0.4022102500000000 Li
   0.0000000000000000    0.0000000000000000    0.0000000000000000 Li
   0.1963518300000000    0.1963518300000000    0.1963518300000000 Al
   0.8036481700000000    0.8036481700000000    0.8036481700000000 Al
