Li3 Al2
1.0
      3.2291777624       0.0000000000       2.8182150814
      1.2809999991       2.9642249642       2.8182151964
      0.0000000000       0.0000000000       4.2860152720
Li Al
3 2
direct
   0.5977897500000000    0.5977897500000000    0.5977897500000000 Li
   0.4022102500000000    0.4022102500000000    0.4022102500000000 Li
   0.0000000000000000    0.0000000000000000    0.0000000000000000 Li
   0.1963518300000000    0.1963518300000000    0.1963518300000000 Al
   0.8036481700000000    0.8036481700000000    0.8036481700000000 Al
