Li2 Mg4
1.0
      4.4748680164       0.0000000000       1.3932712387
      3.6900632438       2.5313784824       1.3932712387
      0.0000000000       0.0000000000       5.5917708480
Li Mg
2 4
direct
   0.5015374500000001    0.5015374500000001    0.2486776400000000 Li
   0.4984625500000000    0.4984625500000000    0.7513223600000000 Li
   0.8406304400000000    0.8406304400000000    0.0802620400000000 Mg
   0.1585311000000000    0.1585311000000000    0.4218367400000000 Mg
   0.8414689000000000    0.8414689000000000    0.5781632600000000 Mg
   0.1593695600000000    0.1593695600000000    0.9197379600000000 Mg
