Zn2 Cl4
1.0
      4.7681249875       0.0000000000      -2.3490650332
     -1.1572895728       4.6255483732      -2.3490651620
      0.0000000000       0.0000000000       6.0136956430
Zn Cl
2 4
direct
   0.0000000000000000    0.0000000000000000    0.0000000000000000 Zn
   0.2500000000000000    0.7500000000000000    0.5000000000000000 Zn
   0.3576274700000000    0.3750000000000000    0.2500000000000000 Cl
   0.1250000000000000    0.6423725300000001    0.7500000000000000 Cl
   0.6250000000000000    0.1076274700000000    0.7500000000000000 Cl
   0.8923725300000001    0.8750000000000000    0.2500000000000000 Cl
