Zn2 Cl4
1.0
      4.0152631474       0.0000000000      -1.9781600280
     -0.9745596402       3.8951986300      -1.9781601364
      0.0000000000       0.0000000000       5.0641647520
Zn Cl
2 4
direct
   0.0000000000000000    0.0000000000000000    0.0000000000000000 Zn
   0.2500000000000000    0.7500000000000000    0.5000000000000000 Zn
   0.3576274700000000    0.3750000000000000    0.2500000000000000 Cl
   0.1250000000000000    0.6423725300000001    0.7500000000000000 Cl
   0.6250000000000000    0.1076274700000000    0.7500000000000000 Cl
   0.8923725300000001    0.8750000000000000    0.2500000000000000 Cl
