K3 Mo1
1.0
      5.0011875000       0.0000000000       0.0000000000
     -0.0000000000       5.0011875000       0.0000000000
      0.0000000000       0.0000000000       5.0011875000
K Mo
3 1
direct
   0.0000000000000000    0.5000000000000000    0.5000000000000000 K
   0.5000000000000000    0.0000000000000000    0.5000000000000000 K
   0.5000000000000000    0.5000000000000000    0.0000000000000000 K
   0.0000000000000000    0.0000000000000000    0.0000000000000000 Mo
