K3 Mo1
1.0
      5.5895625000       0.0000000000       0.0000000000
     -0.0000000000       5.5895625000       0.0000000000
      0.0000000000       0.0000000000       5.5895625000
K Mo
3 1
direct
   0.0000000000000000    0.5000000000000000    0.5000000000000000 K
   0.5000000000000000    0.0000000000000000    0.5000000000000000 K
   0.5000000000000000    0.5000000000000000    0.0000000000000000 K
   0.0000000000000000    0.0000000000000000    0.0000000000000000 Mo
