Mn1 Au4
1.0
      2.2300662989       0.0000000000       8.3480147705
      1.0958198880       1.9422601450       8.3480147705
      0.0000000000       0.0000000000       8.6407487550
Mn Au
1 4
direct
   0.0000000000000000    0.0000000000000000    0.0000000000000000 Mn
   0.6054570000000000    0.6054570000000000    0.6054570000000000 Au
   0.2017120000000000    0.2017120000000000    0.2017120000000000 Au
   0.7982880000000000    0.7982880000000000    0.7982880000000000 Au
   0.3945430000000000    0.3945430000000000    0.3945430000000000 Au
