Mn1 Au4
1.0
      2.6760795587       0.0000000000      10.0176177245
      1.3149838655       2.3307121740      10.0176177245
      0.0000000000       0.0000000000      10.3688985060
Mn Au
1 4
direct
   0.0000000000000000    0.0000000000000000    0.0000000000000000 Mn
   0.6054570000000000    0.6054570000000000    0.6054570000000000 Au
   0.2017120000000000    0.2017120000000000    0.2017120000000000 Au
   0.7982880000000000    0.7982880000000000    0.7982880000000000 Au
   0.3945430000000000    0.3945430000000000    0.3945430000000000 Au
