Mn1 Au4
1.0
      2.3787373855       0.0000000000       8.9045490885
      1.1688745472       2.0717441546       8.9045490885
      0.0000000000       0.0000000000       9.2167986720
Mn Au
1 4
direct
   0.0000000000000000    0.0000000000000000    0.0000000000000000 Mn
   0.6054570000000000    0.6054570000000000    0.6054570000000000 Au
   0.2017120000000000    0.2017120000000000    0.2017120000000000 Au
   0.7982880000000000    0.7982880000000000    0.7982880000000000 Au
   0.3945430000000000    0.3945430000000000    0.3945430000000000 Au
