Mn1 Au4
1.0
      2.5274084721       0.0000000000       9.4610834065
      1.2419292064       2.2012281643       9.4610834065
      0.0000000000       0.0000000000       9.7928485890
Mn Au
1 4
direct
   0.0000000000000000    0.0000000000000000    0.0000000000000000 Mn
   0.6054570000000000    0.6054570000000000    0.6054570000000000 Au
   0.2017120000000000    0.2017120000000000    0.2017120000000000 Au
   0.7982880000000000    0.7982880000000000    0.7982880000000000 Au
   0.3945430000000000    0.3945430000000000    0.3945430000000000 Au
