Mn1 Au4
1.0
      2.8247506453       0.0000000000      10.5741520426
      1.3880385247       2.4601961836      10.5741520426
      0.0000000000       0.0000000000      10.9449484230
Mn Au
1 4
direct
   0.0000000000000000    0.0000000000000000    0.0000000000000000 Mn
   0.6054570000000000    0.6054570000000000    0.6054570000000000 Au
   0.2017120000000000    0.2017120000000000    0.2017120000000000 Au
   0.7982880000000000    0.7982880000000000    0.7982880000000000 Au
   0.3945430000000000    0.3945430000000000    0.3945430000000000 Au
