Li1 W3
1.0
      3.1473712000       0.0000000000       0.0000000000
     -0.0000000000       3.1473712000       0.0000000000
      0.0000000000       0.0000000000       3.1473712000
Li W
1 3
direct
   0.0000000000000000    0.0000000000000000    0.0000000000000000 Li
   0.0000000000000000    0.5000000000000000    0.5000000000000000 W
   0.5000000000000000    0.0000000000000000    0.5000000000000000 W
   0.5000000000000000    0.5000000000000000    0.0000000000000000 W
