Li3 Cd1
1.0
      2.8037678379       0.0000000000       8.1560285998
      1.3627467501       2.4503133236       8.1560285998
      0.0000000000       0.0000000000       8.6244951330
Li Cd
3 1
direct
   0.2511640000000000    0.2511640000000000    0.2511640000000000 Li
   0.5000000000000000    0.5000000000000000    0.5000000000000000 Li
   0.7488359999999999    0.7488359999999999    0.7488359999999999 Li
   0.0000000000000000    0.0000000000000000    0.0000000000000000 Cd
