Li2 Mg4
1.0
      4.0504957275       0.0000000000       0.0000000000
     -2.0468655779       3.4952620709       0.0000000000
      0.0000000000       0.0000000000       3.7892492175
Li Mg
2 4
direct
   0.6671583900000000    0.6671583900000000    0.7500000000000000 Li
   0.3328416100000000    0.3328416100000000    0.2500000000000000 Li
   0.0056698600000000    0.3343294300000000    0.7500000000000000 Mg
   0.3343294300000000    0.0056698600000000    0.7500000000000000 Mg
   0.6656705700000000    0.9943301400000000    0.2500000000000000 Mg
   0.9943301400000000    0.6656705700000000    0.2500000000000000 Mg
