K4 Zr2
1.0
      6.2361568865       0.0000000000       0.0000000000
     -3.1180781341       5.4006704642       0.0000000000
      0.0000000000       0.0000000000       7.4717956000
K Zr
4 2
direct
   0.6666666666666666    0.3333333333333333    0.2500000000000000 K
   0.3333333333333333    0.6666666666666666    0.7500000000000000 K
   0.0000000000000000    0.0000000000000000    0.5000000000000000 K
   0.0000000000000000    0.0000000000000000    0.0000000000000000 K
   0.3333333333333333    0.6666666666666666    0.2500000000000000 Zr
   0.6666666666666666    0.3333333333333333    0.7500000000000000 Zr
