K4 Zr2
1.0
      5.9079381030       0.0000000000       0.0000000000
     -2.9539687586       5.1164246503       0.0000000000
      0.0000000000       0.0000000000       7.0785432000
K Zr
4 2
direct
   0.6666666666666666    0.3333333333333333    0.2500000000000000 K
   0.3333333333333333    0.6666666666666666    0.7500000000000000 K
   0.0000000000000000    0.0000000000000000    0.5000000000000000 K
   0.0000000000000000    0.0000000000000000    0.0000000000000000 K
   0.3333333333333333    0.6666666666666666    0.2500000000000000 Zr
   0.6666666666666666    0.3333333333333333    0.7500000000000000 Zr
