K4 Zr2
1.0
      4.9232817525       0.0000000000       0.0000000000
     -2.4616406322       4.2636872086       0.0000000000
      0.0000000000       0.0000000000       5.8987860000
K Zr
4 2
direct
   0.6666666666666666    0.3333333333333333    0.2500000000000000 K
   0.3333333333333333    0.6666666666666666    0.7500000000000000 K
   0.0000000000000000    0.0000000000000000    0.5000000000000000 K
   0.0000000000000000    0.0000000000000000    0.0000000000000000 K
   0.3333333333333333    0.6666666666666666    0.2500000000000000 Zr
   0.6666666666666666    0.3333333333333333    0.7500000000000000 Zr
