K3 Ru1
1.0
      4.6921423641       0.0000000000       2.7090096570
      1.5640474547       4.4237942453       2.7090096570
      0.0000000000       0.0000000000       5.4180193140
K Ru
3 1
direct
   0.2500000000000000    0.2500000000000000    0.2500000000000000 K
   0.7500000000000000    0.7500000000000000    0.7500000000000000 K
   0.5000000000000000    0.5000000000000000    0.5000000000000000 K
   0.0000000000000000    0.0000000000000000    0.0000000000000000 Ru
