K3 Ru1
1.0
      4.9528169399       0.0000000000       2.8595101935
      1.6509389800       4.6695605922       2.8595101935
      0.0000000000       0.0000000000       5.7190203870
K Ru
3 1
direct
   0.2500000000000000    0.2500000000000000    0.2500000000000000 K
   0.7500000000000000    0.7500000000000000    0.7500000000000000 K
   0.5000000000000000    0.5000000000000000    0.5000000000000000 K
   0.0000000000000000    0.0000000000000000    0.0000000000000000 Ru
