K3 Ru1
1.0
      3.9101186368       0.0000000000       2.2575080475
      1.3033728789       3.6864952044       2.2575080475
      0.0000000000       0.0000000000       4.5150160950
K Ru
3 1
direct
   0.2500000000000000    0.2500000000000000    0.2500000000000000 K
   0.7500000000000000    0.7500000000000000    0.7500000000000000 K
   0.5000000000000000    0.5000000000000000    0.5000000000000000 K
   0.0000000000000000    0.0000000000000000    0.0000000000000000 Ru
