K3 Ru1
1.0
      4.4314677883       0.0000000000       2.5585091205
      1.4771559294       4.1780278983       2.5585091205
      0.0000000000       0.0000000000       5.1170182410
K Ru
3 1
direct
   0.2500000000000000    0.2500000000000000    0.2500000000000000 K
   0.7500000000000000    0.7500000000000000    0.7500000000000000 K
   0.5000000000000000    0.5000000000000000    0.5000000000000000 K
   0.0000000000000000    0.0000000000000000    0.0000000000000000 Ru
