K3 Ru1
1.0
      4.1707932125       0.0000000000       2.4080085840
      1.3902644042       3.9322615514       2.4080085840
      0.0000000000       0.0000000000       4.8160171680
K Ru
3 1
direct
   0.2500000000000000    0.2500000000000000    0.2500000000000000 K
   0.7500000000000000    0.7500000000000000    0.7500000000000000 K
   0.5000000000000000    0.5000000000000000    0.5000000000000000 K
   0.0000000000000000    0.0000000000000000    0.0000000000000000 Ru
