Li2 Ag2
1.0
      3.3792548333       0.0000000000      -2.0603580622
     -1.2562164009       3.1370820172      -2.0603580622
      0.0000000000       0.0000000000       3.8013882920
Li Ag
2 2
direct
   0.7500000000000000    0.2500000000000000    0.5000000000000000 Li
   0.5000000000000000    0.5000000000000000    0.0000000000000000 Li
   0.2500000000000000    0.7500000000000000    0.5000000000000000 Ag
   0.0000000000000000    0.0000000000000000    0.0000000000000000 Ag
