Li3 Mg1
1.0
      4.4692768979       0.0000000000      -3.3054243129
     -0.3923595657       2.8092911558      -4.7806069752
      0.0000000000       0.0000000000       5.5588007590
Li Mg
3 1
direct
   0.8341634700000000    0.5000000000000000    0.3341634700000000 Li
   0.2480506400000000    0.2502639300000000    0.9977847100000000 Li
   0.7475207800000000    0.7497360700000000    0.9977847100000000 Li
   0.3369321200000000    0.0000000000000000    0.3369321200000000 Mg
