Li3 Mg1
1.0
      3.9988266981       0.0000000000      -2.9574849116
     -0.3510585588       2.5135762973      -4.2773851884
      0.0000000000       0.0000000000       4.9736638370
Li Mg
3 1
direct
   0.8341634700000000    0.5000000000000000    0.3341634700000000 Li
   0.2480506400000000    0.2502639300000000    0.9977847100000000 Li
   0.7475207800000000    0.7497360700000000    0.9977847100000000 Li
   0.3369321200000000    0.0000000000000000    0.3369321200000000 Mg
