Mg1 Te1
1.0
      3.0943619291       0.0000000000       1.7865306928
      1.0314539764       2.9173924047       1.7865306928
      0.0000000000       0.0000000000       3.5730613855
Mg Te
1 1
direct
   0.0000000000000000    0.0000000000000000    0.0000000000000000 Mg
   0.5000000000000000    0.5000000000000000    0.5000000000000000 Te
