Mg1 Te1
1.0
      3.2763832191       0.0000000000       1.8916207335
      1.0921277397       3.0890037226       1.8916207335
      0.0000000000       0.0000000000       3.7832414670
Mg Te
1 1
direct
   0.0000000000000000    0.0000000000000000    0.0000000000000000 Mg
   0.5000000000000000    0.5000000000000000    0.5000000000000000 Te
