Mg1 Te1
1.0
      2.9123406392       0.0000000000       1.6814406520
      0.9707802131       2.7457810868       1.6814406520
      0.0000000000       0.0000000000       3.3628813040
Mg Te
1 1
direct
   0.0000000000000000    0.0000000000000000    0.0000000000000000 Mg
   0.5000000000000000    0.5000000000000000    0.5000000000000000 Te
