Mg1 Te1
1.0
      3.4584045090       0.0000000000       1.9967107743
      1.1528015030       3.2606150406       1.9967107743
      0.0000000000       0.0000000000       3.9934215485
Mg Te
1 1
direct
   0.0000000000000000    0.0000000000000000    0.0000000000000000 Mg
   0.5000000000000000    0.5000000000000000    0.5000000000000000 Te
