Mg1 Te1
1.0
      2.7303193492       0.0000000000       1.5763506113
      0.9101064497       2.5741697689       1.5763506113
      0.0000000000       0.0000000000       3.1527012225
Mg Te
1 1
direct
   0.0000000000000000    0.0000000000000000    0.0000000000000000 Mg
   0.5000000000000000    0.5000000000000000    0.5000000000000000 Te
