Cu3 N1
1.0
      3.0517648000       0.0000000000       0.0000000000
     -0.0000000000       3.0517648000       0.0000000000
      0.0000000000       0.0000000000       3.0517648000
Cu N
3 1
direct
   0.0000000000000000    0.0000000000000000    0.5000000000000000 Cu
   0.0000000000000000    0.5000000000000000    0.0000000000000000 Cu
   0.5000000000000000    0.0000000000000000    0.0000000000000000 Cu
   0.0000000000000000    0.0000000000000000    0.0000000000000000 N
