Cu3 N1
1.0
      2.8610295000       0.0000000000       0.0000000000
     -0.0000000000       2.8610295000       0.0000000000
      0.0000000000       0.0000000000       2.8610295000
Cu N
3 1
direct
   0.0000000000000000    0.0000000000000000    0.5000000000000000 Cu
   0.0000000000000000    0.5000000000000000    0.0000000000000000 Cu
   0.5000000000000000    0.0000000000000000    0.0000000000000000 Cu
   0.0000000000000000    0.0000000000000000    0.0000000000000000 N
