Li6 Lu2
1.0
      4.8121344300       0.0000000000       0.0000000000
     -2.4060666462       4.1674309912       0.0000000000
      0.0000000000       0.0000000000       3.7526850000
Li Lu
6 2
direct
   0.8470010000000000    0.1529990000000000    0.7500000000000000 Li
   0.3059990000000000    0.1529990000000000    0.7500000000000000 Li
   0.8470010000000000    0.6940010000000000    0.7500000000000000 Li
   0.1529990000000000    0.8470010000000000    0.2500000000000000 Li
   0.6940010000000000    0.8470010000000000    0.2500000000000000 Li
   0.1529990000000000    0.3059990000000000    0.2500000000000000 Li
   0.6666666666666666    0.3333333333333333    0.2500000000000000 Lu
   0.3333333333333333    0.6666666666666666    0.7500000000000000 Lu
