Li6 Lu2
1.0
      5.7745613160       0.0000000000       0.0000000000
     -2.8872799755       5.0009171894       0.0000000000
      0.0000000000       0.0000000000       4.5032220000
Li Lu
6 2
direct
   0.8470010000000000    0.1529990000000000    0.7500000000000000 Li
   0.3059990000000000    0.1529990000000000    0.7500000000000000 Li
   0.8470010000000000    0.6940010000000000    0.7500000000000000 Li
   0.1529990000000000    0.8470010000000000    0.2500000000000000 Li
   0.6940010000000000    0.8470010000000000    0.2500000000000000 Li
   0.1529990000000000    0.3059990000000000    0.2500000000000000 Li
   0.6666666666666666    0.3333333333333333    0.2500000000000000 Lu
   0.3333333333333333    0.6666666666666666    0.7500000000000000 Lu
