Li2 Mg4
1.0
      4.1011766976       0.0000000000       2.9478334881
      1.5114792750       3.8124900926       2.9478334881
      0.0000000000       0.0000000000       5.0506804670
Li Mg
2 4
direct
   0.1662327600000000    0.1662327600000000    0.1662327600000000 Li
   0.8337672400000000    0.8337672400000000    0.8337672400000000 Li
   0.3304147000000000    0.0000000000000000    0.6695853000000000 Mg
   0.6695853000000000    0.3304147000000000    0.0000000000000000 Mg
   0.5000000000000000    0.5000000000000000    0.5000000000000000 Mg
   0.0000000000000000    0.6695853000000000    0.3304147000000000 Mg
