Li2 Mg4
1.0
      3.6186853215       0.0000000000       2.6010295483
      1.3336581838       3.3639618465       2.6010295483
      0.0000000000       0.0000000000       4.4564827650
Li Mg
2 4
direct
   0.1662327600000000    0.1662327600000000    0.1662327600000000 Li
   0.8337672400000000    0.8337672400000000    0.8337672400000000 Li
   0.3304147000000000    0.0000000000000000    0.6695853000000000 Mg
   0.6695853000000000    0.3304147000000000    0.0000000000000000 Mg
   0.5000000000000000    0.5000000000000000    0.5000000000000000 Mg
   0.0000000000000000    0.6695853000000000    0.3304147000000000 Mg
