Cu2 Se2
1.0
      3.5858509525       0.0000000000       0.0000000000
     -0.0000000000       3.5858509525       0.0000000000
      0.0000000000       0.0000000000       5.1664257265
Cu Se
2 2
direct
   0.0000000000000000    0.0000000000000000    0.0000000000000000 Cu
   0.5000000000000000    0.5000000000000000    0.0000000000000000 Cu
   0.5000000000000000    0.0000000000000000    0.7229964200000000 Se
   0.0000000000000000    0.5000000000000000    0.2770035800000000 Se
