Cu2 Se2
1.0
      3.3971219550       0.0000000000       0.0000000000
     -0.0000000000       3.3971219550       0.0000000000
      0.0000000000       0.0000000000       4.8945085830
Cu Se
2 2
direct
   0.0000000000000000    0.0000000000000000    0.0000000000000000 Cu
   0.5000000000000000    0.5000000000000000    0.0000000000000000 Cu
   0.5000000000000000    0.0000000000000000    0.7229964200000000 Se
   0.0000000000000000    0.5000000000000000    0.2770035800000000 Se
