Cu2 Se2
1.0
      3.2083929575       0.0000000000       0.0000000000
     -0.0000000000       3.2083929575       0.0000000000
      0.0000000000       0.0000000000       4.6225914395
Cu Se
2 2
direct
   0.0000000000000000    0.0000000000000000    0.0000000000000000 Cu
   0.5000000000000000    0.5000000000000000    0.0000000000000000 Cu
   0.5000000000000000    0.0000000000000000    0.7229964200000000 Se
   0.0000000000000000    0.5000000000000000    0.2770035800000000 Se
