Mn1 V1
1.0
      2.0258107120       0.0000000000       0.0000000000
     -0.7172197535       1.8945988668       0.0000000000
      0.0000000000       0.0000000000       3.1753008000
Mn V
1 1
direct
   0.0000000000000000    0.0000000000000000    0.0000000000000000 Mn
   0.5000000000000000    0.5000000000000000    0.5000000000000000 V
