Mn1 V1
1.0
      1.8991975425       0.0000000000       0.0000000000
     -0.6723935189       1.7761864376       0.0000000000
      0.0000000000       0.0000000000       2.9768445000
Mn V
1 1
direct
   0.0000000000000000    0.0000000000000000    0.0000000000000000 Mn
   0.5000000000000000    0.5000000000000000    0.5000000000000000 V
