Mn1 V1
1.0
      2.2790370510       0.0000000000       0.0000000000
     -0.8068722227       2.1314237251       0.0000000000
      0.0000000000       0.0000000000       3.5722134000
Mn V
1 1
direct
   0.0000000000000000    0.0000000000000000    0.0000000000000000 Mn
   0.5000000000000000    0.5000000000000000    0.5000000000000000 V
