Mn1 V1
1.0
      2.1524238815       0.0000000000       0.0000000000
     -0.7620459881       2.0130112960       0.0000000000
      0.0000000000       0.0000000000       3.3737571000
Mn V
1 1
direct
   0.0000000000000000    0.0000000000000000    0.0000000000000000 Mn
   0.5000000000000000    0.5000000000000000    0.5000000000000000 V
