Mn1 V1
1.0
      2.4056502205       0.0000000000       0.0000000000
     -0.8516984573       2.2498361543       0.0000000000
      0.0000000000       0.0000000000       3.7706697000
Mn V
1 1
direct
   0.0000000000000000    0.0000000000000000    0.0000000000000000 Mn
   0.5000000000000000    0.5000000000000000    0.5000000000000000 V
