K2 N4
1.0
      5.4706849340       0.0000000000       0.0000000000
      4.6520768501       2.8786411078       0.0000000000
      0.0000000000       0.0000000000       5.3133367000
K N
2 4
direct
   0.8737730000000000    0.8737730000000000    0.7903320000000000 K
   0.1262270000000000    0.1262270000000000    0.2903320000000000 K
   0.8737880000000000    0.8737880000000000    0.2929920000000000 N
   0.1262120000000000    0.1262120000000000    0.7929920000000000 N
   0.6215680000000000    0.6215680000000000    0.7936770000000000 N
   0.3784320000000000    0.3784320000000000    0.2936770000000000 N
