Mn3 Si1
1.0
      3.1105166430       0.0000000000       1.7958582806
      1.0368391911       2.9326236805       1.7958582773
      0.0000000000       0.0000000000       3.5917146720
Mn Si
3 1
direct
   0.2500000000000000    0.2500000000000000    0.2500000000000000 Mn
   0.7500000000000000    0.7500000000000000    0.7500000000000000 Mn
   0.5000000000000000    0.5000000000000000    0.5000000000000000 Mn
   0.0000000000000000    0.0000000000000000    0.0000000000000000 Si
