Mn3 Si1
1.0
      2.9377101628       0.0000000000       1.6960883761
      0.9792370138       2.7697001427       1.6960883730
      0.0000000000       0.0000000000       3.3921749680
Mn Si
3 1
direct
   0.2500000000000000    0.2500000000000000    0.2500000000000000 Mn
   0.7500000000000000    0.7500000000000000    0.7500000000000000 Mn
   0.5000000000000000    0.5000000000000000    0.5000000000000000 Mn
   0.0000000000000000    0.0000000000000000    0.0000000000000000 Si
