Mn3 Si1
1.0
      3.2833231231       0.0000000000       1.8956281850
      1.0944413684       3.0955472183       1.8956281816
      0.0000000000       0.0000000000       3.7912543760
Mn Si
3 1
direct
   0.2500000000000000    0.2500000000000000    0.2500000000000000 Mn
   0.7500000000000000    0.7500000000000000    0.7500000000000000 Mn
   0.5000000000000000    0.5000000000000000    0.5000000000000000 Mn
   0.0000000000000000    0.0000000000000000    0.0000000000000000 Si
