Mn3 Si1
1.0
      2.7649036826       0.0000000000       1.5963184716
      0.9216348365       2.6067766049       1.5963184687
      0.0000000000       0.0000000000       3.1926352640
Mn Si
3 1
direct
   0.2500000000000000    0.2500000000000000    0.2500000000000000 Mn
   0.7500000000000000    0.7500000000000000    0.7500000000000000 Mn
   0.5000000000000000    0.5000000000000000    0.5000000000000000 Mn
   0.0000000000000000    0.0000000000000000    0.0000000000000000 Si
