Mn3 Si1
1.0
      2.5920972025       0.0000000000       1.4965485671
      0.8640326592       2.4438530671       1.4965485644
      0.0000000000       0.0000000000       2.9930955600
Mn Si
3 1
direct
   0.2500000000000000    0.2500000000000000    0.2500000000000000 Mn
   0.7500000000000000    0.7500000000000000    0.7500000000000000 Mn
   0.5000000000000000    0.5000000000000000    0.5000000000000000 Mn
   0.0000000000000000    0.0000000000000000    0.0000000000000000 Si
