K2 Pd1
1.0
      4.2503152500       0.0000000000       0.0000000000
     -0.0000000000       4.2503152500       0.0000000000
      0.0000000000       0.0000000000       2.7489870000
K Pd
2 1
direct
   0.0000000000000000    0.5000000000000000    0.5000000000000000 K
   0.5000000000000000    0.0000000000000000    0.5000000000000000 K
   0.0000000000000000    0.0000000000000000    0.0000000000000000 Pd
