K2 Pd1
1.0
      4.5336696000       0.0000000000       0.0000000000
     -0.0000000000       4.5336696000       0.0000000000
      0.0000000000       0.0000000000       2.9322528000
K Pd
2 1
direct
   0.0000000000000000    0.5000000000000000    0.5000000000000000 K
   0.5000000000000000    0.0000000000000000    0.5000000000000000 K
   0.0000000000000000    0.0000000000000000    0.0000000000000000 Pd
