K2 Pd1
1.0
      5.3837326500       0.0000000000       0.0000000000
     -0.0000000000       5.3837326500       0.0000000000
      0.0000000000       0.0000000000       3.4820502000
K Pd
2 1
direct
   0.0000000000000000    0.5000000000000000    0.5000000000000000 K
   0.5000000000000000    0.0000000000000000    0.5000000000000000 K
   0.0000000000000000    0.0000000000000000    0.0000000000000000 Pd
