K2 Pd1
1.0
      5.1003783000       0.0000000000       0.0000000000
     -0.0000000000       5.1003783000       0.0000000000
      0.0000000000       0.0000000000       3.2987844000
K Pd
2 1
direct
   0.0000000000000000    0.5000000000000000    0.5000000000000000 K
   0.5000000000000000    0.0000000000000000    0.5000000000000000 K
   0.0000000000000000    0.0000000000000000    0.0000000000000000 Pd
