K1 Pt1
1.0
      2.8507286500       0.0000000000       0.0000005334
     -1.4252678062       2.4690352761      -0.0000002667
      0.0000000000       0.0000000000       5.0782991000
K Pt
1 1
direct
   0.6666666666666666    0.3333333333333333    0.7499990000000000 K
   0.3333333333333333    0.6666666666666666    0.2500010000000000 Pt
