K1 Pt1
1.0
      2.5506519500       0.0000000000       0.0000004772
     -1.2752396160       2.2091368260      -0.0000002386
      0.0000000000       0.0000000000       4.5437413000
K Pt
1 1
direct
   0.6666666666666666    0.3333333333333333    0.7499990000000000 K
   0.3333333333333333    0.6666666666666666    0.2500010000000000 Pt
