K1 Pt1
1.0
      2.7006903000       0.0000000000       0.0000005053
     -1.3502537111       2.3390860510      -0.0000002527
      0.0000000000       0.0000000000       4.8110202000
K Pt
1 1
direct
   0.6666666666666666    0.3333333333333333    0.7499990000000000 K
   0.3333333333333333    0.6666666666666666    0.2500010000000000 Pt
