K1 Pt1
1.0
      2.4006136000       0.0000000000       0.0000004492
     -1.2002255210       2.0791876009      -0.0000002246
      0.0000000000       0.0000000000       4.2764624000
K Pt
1 1
direct
   0.6666666666666666    0.3333333333333333    0.7499990000000000 K
   0.3333333333333333    0.6666666666666666    0.2500010000000000 Pt
