K1 Pt1
1.0
      2.2505752500       0.0000000000       0.0000004211
     -1.1252114259       1.9492383759      -0.0000002106
      0.0000000000       0.0000000000       4.0091835000
K Pt
1 1
direct
   0.6666666666666666    0.3333333333333333    0.7499990000000000 K
   0.3333333333333333    0.6666666666666666    0.2500010000000000 Pt
