Li1 Yb3
1.0
      3.9307911018       0.0000000000       2.2694433008
      1.3102637006       3.7059853913       2.2694433008
      0.0000000000       0.0000000000       4.5388866015
Li Yb
1 3
direct
   0.0000000000000000    0.0000000000000000    0.0000000000000000 Li
   0.2500000000000000    0.2500000000000000    0.2500000000000000 Yb
   0.7500000000000000    0.7500000000000000    0.7500000000000000 Yb
   0.5000000000000000    0.5000000000000000    0.5000000000000000 Yb
