Li1 Yb3
1.0
      3.6995680958       0.0000000000       2.1359466360
      1.2331893653       3.4879862507       2.1359466360
      0.0000000000       0.0000000000       4.2718932720
Li Yb
1 3
direct
   0.0000000000000000    0.0000000000000000    0.0000000000000000 Li
   0.2500000000000000    0.2500000000000000    0.2500000000000000 Yb
   0.7500000000000000    0.7500000000000000    0.7500000000000000 Yb
   0.5000000000000000    0.5000000000000000    0.5000000000000000 Yb
