Li1 Yb3
1.0
      3.4683450898       0.0000000000       2.0024499713
      1.1561150299       3.2699871100       2.0024499713
      0.0000000000       0.0000000000       4.0048999425
Li Yb
1 3
direct
   0.0000000000000000    0.0000000000000000    0.0000000000000000 Li
   0.2500000000000000    0.2500000000000000    0.2500000000000000 Yb
   0.7500000000000000    0.7500000000000000    0.7500000000000000 Yb
   0.5000000000000000    0.5000000000000000    0.5000000000000000 Yb
