Li3 Ca1
1.0
      4.3827813925       0.0000000000       2.5304000168
      1.4609271308       4.1321259241       2.5304000168
      0.0000000000       0.0000000000       5.0608000335
Li Ca
3 1
direct
   0.7500000000000000    0.7500000000000000    0.7500000000000000 Li
   0.2500000000000000    0.2500000000000000    0.2500000000000000 Li
   0.0000000000000000    0.0000000000000000    0.0000000000000000 Li
   0.5000000000000000    0.5000000000000000    0.5000000000000000 Ca
