K3 Sb1
1.0
      4.4010344226       0.0000000000       2.5409388531
      1.4670111917       4.1493353741       2.5409388544
      0.0000000000       0.0000000000       5.0818777195
K Sb
3 1
direct
   0.5000000000000000    0.5000000000000000    0.5000000000000000 K
   0.2500000000000000    0.2500000000000000    0.2500000000000000 K
   0.7500000000000000    0.7500000000000000    0.7500000000000000 K
   0.0000000000000000    0.0000000000000000    0.0000000000000000 Sb
