K3 Sb1
1.0
      4.1421500448       0.0000000000       2.3914718618
      1.3807164158       3.9052568227       2.3914718630
      0.0000000000       0.0000000000       4.7829437360
K Sb
3 1
direct
   0.5000000000000000    0.5000000000000000    0.5000000000000000 K
   0.2500000000000000    0.2500000000000000    0.2500000000000000 K
   0.7500000000000000    0.7500000000000000    0.7500000000000000 K
   0.0000000000000000    0.0000000000000000    0.0000000000000000 Sb
