K3 Sb1
1.0
      4.9188031783       0.0000000000       2.8398728358
      1.6396007437       4.6374924769       2.8398728373
      0.0000000000       0.0000000000       5.6797456865
K Sb
3 1
direct
   0.5000000000000000    0.5000000000000000    0.5000000000000000 K
   0.2500000000000000    0.2500000000000000    0.2500000000000000 K
   0.7500000000000000    0.7500000000000000    0.7500000000000000 K
   0.0000000000000000    0.0000000000000000    0.0000000000000000 Sb
