K3 Sb1
1.0
      4.6599188004       0.0000000000       2.6904058445
      1.5533059677       4.3934139255       2.6904058459
      0.0000000000       0.0000000000       5.3808117030
K Sb
3 1
direct
   0.5000000000000000    0.5000000000000000    0.5000000000000000 K
   0.2500000000000000    0.2500000000000000    0.2500000000000000 K
   0.7500000000000000    0.7500000000000000    0.7500000000000000 K
   0.0000000000000000    0.0000000000000000    0.0000000000000000 Sb
