K3 Sb1
1.0
      3.8832656670       0.0000000000       2.2420048704
      1.2944216398       3.6611782712       2.2420048716
      0.0000000000       0.0000000000       4.4840097525
K Sb
3 1
direct
   0.5000000000000000    0.5000000000000000    0.5000000000000000 K
   0.2500000000000000    0.2500000000000000    0.2500000000000000 K
   0.7500000000000000    0.7500000000000000    0.7500000000000000 K
   0.0000000000000000    0.0000000000000000    0.0000000000000000 Sb
