Li1 Mg3
1.0
      2.6742475515       0.0000000000       0.0000000000
     -1.3371375719       2.3159583503       0.0000000000
      0.0000000000       0.0000000000       8.6033603655
Li Mg
1 3
direct
   0.6666666666666666    0.3333333333333333    0.5000000000000000 Li
   0.6666666666666666    0.3333333333333333    0.0000000000000000 Mg
   0.0000000000000000    0.0000000000000000    0.7425651000000000 Mg
   0.0000000000000000    0.0000000000000000    0.2574349000000000 Mg
