Li1 Mg3
1.0
      2.8315562310       0.0000000000       0.0000000000
     -1.4157927232       2.4521911945       0.0000000000
      0.0000000000       0.0000000000       9.1094403870
Li Mg
1 3
direct
   0.6666666666666666    0.3333333333333333    0.5000000000000000 Li
   0.6666666666666666    0.3333333333333333    0.0000000000000000 Mg
   0.0000000000000000    0.0000000000000000    0.7425651000000000 Mg
   0.0000000000000000    0.0000000000000000    0.2574349000000000 Mg
