Li1 Mg3
1.0
      2.3596301925       0.0000000000       0.0000000000
     -1.1798272693       2.0434926621       0.0000000000
      0.0000000000       0.0000000000       7.5912003225
Li Mg
1 3
direct
   0.6666666666666666    0.3333333333333333    0.5000000000000000 Li
   0.6666666666666666    0.3333333333333333    0.0000000000000000 Mg
   0.0000000000000000    0.0000000000000000    0.7425651000000000 Mg
   0.0000000000000000    0.0000000000000000    0.2574349000000000 Mg
