Mn1 Pd1
1.0
      2.9546188260       0.0000000000       0.0000000000
     -0.0000000000       2.9546188260       0.0000000000
      0.0000000000       0.0000000000       2.9546188260
Mn Pd
1 1
direct
   0.0000000000000000    0.0000000000000000    0.0000000000000000 Mn
   0.5000000000000000    0.5000000000000000    0.5000000000000000 Pd
