Li1 Pt3
1.0
      3.0826183360       0.0000000000       0.0000000000
     -0.0000000000       3.0826207840       0.0000000000
      0.0000000000       0.0000000000       3.0826207840
Li Pt
1 3
direct
   0.0000000000000000    0.0000000000000000    0.0000000000000000 Li
   0.0000000000000000    0.5000000000000000    0.5000000000000000 Pt
   0.5000000000000000    0.5000000000000000    0.0000000000000000 Pt
   0.5000000000000000    0.0000000000000000    0.5000000000000000 Pt
