Li1 Pt3
1.0
      2.8899546900       0.0000000000       0.0000000000
     -0.0000000000       2.8899569850       0.0000000000
      0.0000000000       0.0000000000       2.8899569850
Li Pt
1 3
direct
   0.0000000000000000    0.0000000000000000    0.0000000000000000 Li
   0.0000000000000000    0.5000000000000000    0.5000000000000000 Pt
   0.5000000000000000    0.5000000000000000    0.0000000000000000 Pt
   0.5000000000000000    0.0000000000000000    0.5000000000000000 Pt
