Li1 Pt3
1.0
      3.2752819820       0.0000000000       0.0000000000
     -0.0000000000       3.2752845830       0.0000000000
      0.0000000000       0.0000000000       3.2752845830
Li Pt
1 3
direct
   0.0000000000000000    0.0000000000000000    0.0000000000000000 Li
   0.0000000000000000    0.5000000000000000    0.5000000000000000 Pt
   0.5000000000000000    0.5000000000000000    0.0000000000000000 Pt
   0.5000000000000000    0.0000000000000000    0.5000000000000000 Pt
