Er1 Zn12
1.0
      4.2299306459       0.0000000000       1.7343447024
      2.1149662333       5.5749843084       0.8671728020
      0.0000000000       0.0000000000       6.0254060490
Er Zn
1 12
direct
   0.0000000000000000    0.0000000000000000    0.0000000000000000 Er
   0.7158324700000001    0.7841675299999999    0.7841675299999999 Zn
   0.5000000000000000    0.0000000000000000    0.5000000000000000 Zn
   0.0000000000000000    0.5000000000000000    0.0000000000000000 Zn
   0.5000000000000000    0.5000000000000000    0.0000000000000000 Zn
   0.0000000000000000    0.0000000000000000    0.5000000000000000 Zn
   0.3535626100000000    0.6464373900000000    0.6464373900000000 Zn
   0.0000000000000000    0.3535626100000000    0.6464373900000000 Zn
   0.0000000000000000    0.6464373900000000    0.3535626100000000 Zn
   0.6464373900000000    0.3535626100000000    0.3535626100000000 Zn
   0.2841675300000000    0.2158324700000000    0.2158324700000000 Zn
   0.5000000000000000    0.7841675299999999    0.2158324700000000 Zn
   0.5000000000000000    0.2158324700000000    0.7841675299999999 Zn
