Mn6 Ir2
1.0
      5.2149029535       0.0000000000       0.0000000000
     -2.6074707270       4.5162181402       0.0000000000
      0.0000000000       0.0000000000       4.0481996790
Mn Ir
6 2
direct
   0.1706868100000000    0.3413684700000000    0.2500000000000000 Mn
   0.6586192900000000    0.8293107400000000    0.2500000000000000 Mn
   0.1706877300000000    0.8293062200000000    0.2500000000000000 Mn
   0.8293168200000000    0.6586290500000000    0.7500000000000000 Mn
   0.3413676400000000    0.1706923900000000    0.7500000000000000 Mn
   0.8293226000000000    0.1706923300000000    0.7500000000000000 Mn
   0.6666666666666666    0.3333333333333333    0.2500000000000000 Ir
   0.3333333333333333    0.6666666666666666    0.7500000000000000 Ir
