Sm2 Zn17
1.0
      6.0125008559       0.0000000000       0.7429400439
      0.6567879039       5.9765200624       0.7429412863
      0.0000000000       0.0000000000       6.0582283380
Sm Zn
2 17
direct
   0.6637760900000000    0.6637760900000000    0.6637760900000000 Sm
   0.3362239100000000    0.3362239100000000    0.3362239100000000 Sm
   0.3501601000000000    0.3501601000000000    0.8394308900000000 Zn
   0.3501601000000000    0.8394308900000000    0.3501601000000000 Zn
   0.0992124800000000    0.0992124800000000    0.0992124800000000 Zn
   0.9007875200000000    0.9007875200000000    0.9007875200000000 Zn
   0.0000000000000000    0.0000000000000000    0.5000000000000000 Zn
   0.5000000000000000    0.0000000000000000    0.0000000000000000 Zn
   0.0000000000000000    0.5000000000000000    0.0000000000000000 Zn
   0.7066438700000000    0.2933561300000000    0.0000000000000000 Zn
   0.0000000000000000    0.7066438700000000    0.2933561300000000 Zn
   0.2933561300000000    0.0000000000000000    0.7066438700000000 Zn
   0.2933561300000000    0.7066438700000000    0.0000000000000000 Zn
   0.0000000000000000    0.2933561300000000    0.7066438700000000 Zn
   0.7066438700000000    0.0000000000000000    0.2933561300000000 Zn
   0.6498399000000000    0.1605691100000000    0.6498399000000000 Zn
   0.6498399000000000    0.6498399000000000    0.1605691100000000 Zn
   0.1605691100000000    0.6498399000000000    0.6498399000000000 Zn
   0.8394308900000000    0.3501601000000000    0.3501601000000000 Zn
