K3 Ga1
1.0
      5.4374722500       0.0000000000       0.0000000000
     -0.0000000000       5.4374722500       0.0000000000
      0.0000000000       0.0000000000       5.4374722500
K Ga
3 1
direct
   0.5000000000000000    0.0000000000000000    0.5000000000000000 K
   0.0000000000000000    0.5000000000000000    0.5000000000000000 K
   0.5000000000000000    0.5000000000000000    0.0000000000000000 K
   0.0000000000000000    0.0000000000000000    0.0000000000000000 Ga
