Li2 Mg2
1.0
      4.5032291703       0.0000000000       2.2121168723
      3.7381805793       2.5109916203       2.2121168723
      0.0000000000       0.0000000000       4.5519256950
Li Mg
2 2
direct
   0.6251810000000000    0.6251810000000000    0.7084050000000000 Li
   0.3748190000000000    0.3748190000000000    0.2915950000000000 Li
   0.8763230000000000    0.8763230000000000    0.7934830000000000 Mg
   0.1236770000000000    0.1236770000000000    0.2065170000000000 Mg
