Li2 Mg2
1.0
      5.0330208374       0.0000000000       2.4723659161
      4.1779665298       2.8064023991       2.4723659161
      0.0000000000       0.0000000000       5.0874463650
Li Mg
2 2
direct
   0.6251810000000000    0.6251810000000000    0.7084050000000000 Li
   0.3748190000000000    0.3748190000000000    0.2915950000000000 Li
   0.8763230000000000    0.8763230000000000    0.7934830000000000 Mg
   0.1236770000000000    0.1236770000000000    0.2065170000000000 Mg
