Mg6 Bi6
1.0
      4.4310399120       0.0000000000       0.0000000000
     -0.0000000000       2.8763098320       0.0000000000
      0.0000000000       0.0000000000      13.5188839280
Mg Bi
6 6
direct
   0.0000000000000000    0.5000000000000000    0.1650267900000000 Mg
   0.5000000000000000    0.5000000000000000    0.3901394800000000 Mg
   0.5000000000000000    0.0000000000000000    0.2258988400000000 Mg
   0.0000000000000000    0.0000000000000000    0.6650267900000000 Mg
   0.5000000000000000    0.0000000000000000    0.8901394800000000 Mg
   0.5000000000000000    0.5000000000000000    0.7258988400000000 Mg
   0.0000000000000000    0.0000000000000000    0.0143095200000000 Bi
   0.0000000000000000    0.0000000000000000    0.3108100700000000 Bi
   0.5000000000000000    0.5000000000000000    0.0604822900000000 Bi
   0.0000000000000000    0.5000000000000000    0.5143095200000000 Bi
   0.0000000000000000    0.5000000000000000    0.8108100700000000 Bi
   0.5000000000000000    0.0000000000000000    0.5604822900000000 Bi
