K3 Tl1
1.0
      4.2943039604       0.0000000000       2.4793175475
      1.4314346535       4.0487086011       2.4793175475
      0.0000000000       0.0000000000       4.9586350950
K Tl
3 1
direct
   0.2500000000000000    0.2500000000000000    0.2500000000000000 K
   0.7500000000000000    0.7500000000000000    0.7500000000000000 K
   0.5000000000000000    0.5000000000000000    0.5000000000000000 K
   0.0000000000000000    0.0000000000000000    0.0000000000000000 Tl
