K3 Tl1
1.0
      5.1531647524       0.0000000000       2.9751810570
      1.7177215841       4.8584503214       2.9751810570
      0.0000000000       0.0000000000       5.9503621140
K Tl
3 1
direct
   0.2500000000000000    0.2500000000000000    0.2500000000000000 K
   0.7500000000000000    0.7500000000000000    0.7500000000000000 K
   0.5000000000000000    0.5000000000000000    0.5000000000000000 K
   0.0000000000000000    0.0000000000000000    0.0000000000000000 Tl
