K3 Tl1
1.0
      4.5805908911       0.0000000000       2.6446053840
      1.5268636304       4.3186225079       2.6446053840
      0.0000000000       0.0000000000       5.2892107680
K Tl
3 1
direct
   0.2500000000000000    0.2500000000000000    0.2500000000000000 K
   0.7500000000000000    0.7500000000000000    0.7500000000000000 K
   0.5000000000000000    0.5000000000000000    0.5000000000000000 K
   0.0000000000000000    0.0000000000000000    0.0000000000000000 Tl
