K3 Tl1
1.0
      5.4394516831       0.0000000000       3.1404688935
      1.8131505610       5.1283642281       3.1404688935
      0.0000000000       0.0000000000       6.2809377870
K Tl
3 1
direct
   0.2500000000000000    0.2500000000000000    0.2500000000000000 K
   0.7500000000000000    0.7500000000000000    0.7500000000000000 K
   0.5000000000000000    0.5000000000000000    0.5000000000000000 K
   0.0000000000000000    0.0000000000000000    0.0000000000000000 Tl
