K3 Tl1
1.0
      4.8668778217       0.0000000000       2.8098932205
      1.6222926072       4.5885364146       2.8098932205
      0.0000000000       0.0000000000       5.6197864410
K Tl
3 1
direct
   0.2500000000000000    0.2500000000000000    0.2500000000000000 K
   0.7500000000000000    0.7500000000000000    0.7500000000000000 K
   0.5000000000000000    0.5000000000000000    0.5000000000000000 K
   0.0000000000000000    0.0000000000000000    0.0000000000000000 Tl
