Li1 Tb3
1.0
      4.4035749000       0.0000000000       0.0000000000
     -0.0000000000       4.4035749000       0.0000000000
      0.0000000000       0.0000000000       4.4035749000
Li Tb
1 3
direct
   0.0000000000000000    0.0000000000000000    0.0000000000000000 Li
   0.0000000000000000    0.5000000000000000    0.5000000000000000 Tb
   0.5000000000000000    0.0000000000000000    0.5000000000000000 Tb
   0.5000000000000000    0.5000000000000000    0.0000000000000000 Tb
