Li2 I2
1.0
      3.8624588625       0.0000000000       0.0000000000
     -1.9312281351       3.3449883425       0.0000000000
      0.0000000000       0.0000000000       6.1979429260
Li I
2 2
direct
   0.3333333333333333    0.6666666666666666    0.9968416600000000 Li
   0.6666666666666666    0.3333333333333333    0.4968416600000000 Li
   0.3333333333333333    0.6666666666666666    0.3781583400000000 I
   0.6666666666666666    0.3333333333333333    0.8781583400000000 I
