Li2 I2
1.0
      3.4080519375       0.0000000000       0.0000000000
     -1.7040248251       2.9514603022       0.0000000000
      0.0000000000       0.0000000000       5.4687731700
Li I
2 2
direct
   0.3333333333333333    0.6666666666666666    0.9968416600000000 Li
   0.6666666666666666    0.3333333333333333    0.4968416600000000 Li
   0.3333333333333333    0.6666666666666666    0.3781583400000000 I
   0.6666666666666666    0.3333333333333333    0.8781583400000000 I
