Li3 In1
1.0
      3.4261839592       0.0000000000      -3.1233073831
     -0.6679909076       3.3604351905      -3.1233073831
      0.0000000000       0.0000000000       4.6361390760
Li In
3 1
direct
   0.7500010000000000    0.2500000000000000    0.5000000000000000 Li
   0.2500000000000000    0.7500010000000000    0.5000000000000000 Li
   0.5000000000000000    0.5000000000000000    0.0000000000000000 Li
   0.0000000000000000    0.0000000000000000    0.0000000000000000 In
