Li3 In1
1.0
      2.8551532994       0.0000000000      -2.6027561526
     -0.5566590896       2.8003626588      -2.6027561526
      0.0000000000       0.0000000000       3.8634492300
Li In
3 1
direct
   0.7500010000000000    0.2500000000000000    0.5000000000000000 Li
   0.2500000000000000    0.7500010000000000    0.5000000000000000 Li
   0.5000000000000000    0.5000000000000000    0.0000000000000000 Li
   0.0000000000000000    0.0000000000000000    0.0000000000000000 In
