Li3 Rh1
1.0
      2.9211738558       0.0000000000       1.6865405120
      0.9737246186       2.7541091233       1.6865405120
      0.0000000000       0.0000000000       3.3730810240
Li Rh
3 1
direct
   0.2500000000000000    0.2500000000000000    0.2500000000000000 Li
   0.7500000000000000    0.7500000000000000    0.7500000000000000 Li
   0.5000000000000000    0.5000000000000000    0.5000000000000000 Li
   0.0000000000000000    0.0000000000000000    0.0000000000000000 Rh
