Li3 Rh1
1.0
      3.2863205878       0.0000000000       1.8973580760
      1.0954401959       3.0983727637       1.8973580760
      0.0000000000       0.0000000000       3.7947161520
Li Rh
3 1
direct
   0.2500000000000000    0.2500000000000000    0.2500000000000000 Li
   0.7500000000000000    0.7500000000000000    0.7500000000000000 Li
   0.5000000000000000    0.5000000000000000    0.5000000000000000 Li
   0.0000000000000000    0.0000000000000000    0.0000000000000000 Rh
