Li3 Mg3
1.0
      5.6552301525       0.0000000000       0.0000000000
     -5.0800311078       2.4849370257       0.0000000000
      0.0000000000       0.0000000000       3.6746828850
Li Mg
3 3
direct
   0.6940629600000000    0.3059370400000000    0.0000000000000000 Li
   0.5251351900000000    0.4748648100000000    0.5000000000000000 Li
   0.8645579500000000    0.1354420500000000    0.5000000000000000 Li
   0.0320004000000000    0.9679996000000000    0.0000000000000000 Mg
   0.3561780800000000    0.6438219200000000    0.0000000000000000 Mg
   0.1947394300000000    0.8052605700000000    0.5000000000000000 Mg
