Li1 Pb1
1.0
      2.6446957425       0.0000000000       0.0000000000
     -0.0000000000       2.6446957425       0.0000000000
      0.0000000000       0.0000000000       2.6446957425
Li Pb
1 1
direct
   0.0000000000000000    0.0000000000000000    0.0000000000000000 Li
   0.5000000000000000    0.5000000000000000    0.5000000000000000 Pb
