Cu8 O6
1.0
      3.0363037500       0.0000000000       0.0000000000
     -0.0000000000       3.0363037500       0.0000000000
      0.0000000000       0.0000000000       7.0398525000
Cu O
8 6
direct
   0.0000000000000000    0.5000000000000000    0.7633900000000000 Cu
   0.5000000000000000    0.0000000000000000    0.2366100000000000 Cu
   0.0000000000000000    0.0000000000000000    0.0000000000000000 Cu
   0.0000000000000000    0.0000000000000000    0.5000000000000000 Cu
   0.5000000000000000    0.0000000000000000    0.7960110000000000 Cu
   0.0000000000000000    0.5000000000000000    0.2039890000000000 Cu
   0.5000000000000000    0.5000000000000000    0.0000000000000000 Cu
   0.5000000000000000    0.5000000000000000    0.5000000000000000 Cu
   0.0000000000000000    0.0000000000000000    0.2028010000000000 O
   0.0000000000000000    0.0000000000000000    0.7971990000000000 O
   0.0000000000000000    0.5000000000000000    0.5080680000000000 O
   0.5000000000000000    0.0000000000000000    0.4919320000000000 O
   0.5000000000000000    0.5000000000000000    0.2028010000000000 O
   0.5000000000000000    0.5000000000000000    0.7971990000000000 O
