Fe3 Cu1
1.0
      2.8075563576       0.0000000000      -2.4994289715
     -0.5650217800       2.7501132866      -2.4994289715
      0.0000000000       0.0000000000       3.7589250970
Fe Cu
3 1
direct
   0.7500000000000000    0.2500000000000000    0.5000000000000000 Fe
   0.2500000000000000    0.7500000000000000    0.5000000000000000 Fe
   0.5000000000000000    0.5000000000000000    0.0000000000000000 Fe
   0.0000000000000000    0.0000000000000000    0.0000000000000000 Cu
