Fe3 Cu1
1.0
      2.4772556097       0.0000000000      -2.2053785043
     -0.4985486294       2.4265705470      -2.2053785043
      0.0000000000       0.0000000000       3.3166986150
Fe Cu
3 1
direct
   0.7500000000000000    0.2500000000000000    0.5000000000000000 Fe
   0.2500000000000000    0.7500000000000000    0.5000000000000000 Fe
   0.5000000000000000    0.5000000000000000    0.0000000000000000 Fe
   0.0000000000000000    0.0000000000000000    0.0000000000000000 Cu
