Fe3 Cu1
1.0
      2.9727067316       0.0000000000      -2.6464542051
     -0.5982583553       2.9118846564      -2.6464542051
      0.0000000000       0.0000000000       3.9800383380
Fe Cu
3 1
direct
   0.7500000000000000    0.2500000000000000    0.5000000000000000 Fe
   0.2500000000000000    0.7500000000000000    0.5000000000000000 Fe
   0.5000000000000000    0.5000000000000000    0.0000000000000000 Fe
   0.0000000000000000    0.0000000000000000    0.0000000000000000 Cu
