Fe3 Cu1
1.0
      2.6424059836       0.0000000000      -2.3524037379
     -0.5317852047       2.5883419168      -2.3524037379
      0.0000000000       0.0000000000       3.5378118560
Fe Cu
3 1
direct
   0.7500000000000000    0.2500000000000000    0.5000000000000000 Fe
   0.2500000000000000    0.7500000000000000    0.5000000000000000 Fe
   0.5000000000000000    0.5000000000000000    0.0000000000000000 Fe
   0.0000000000000000    0.0000000000000000    0.0000000000000000 Cu
