Fe3 Cu1
1.0
      3.1378571056       0.0000000000      -2.7934794388
     -0.6314949306       3.0736560262      -2.7934794388
      0.0000000000       0.0000000000       4.2011515790
Fe Cu
3 1
direct
   0.7500000000000000    0.2500000000000000    0.5000000000000000 Fe
   0.2500000000000000    0.7500000000000000    0.5000000000000000 Fe
   0.5000000000000000    0.5000000000000000    0.0000000000000000 Fe
   0.0000000000000000    0.0000000000000000    0.0000000000000000 Cu
