Cu4 S8
1.0
      5.4902381284       0.0000000000       0.0000403845
     -0.0000000000       5.4901669545       0.0000000000
      0.0000000000       0.0000000000       5.4903484520
Cu S
4 8
direct
   0.0000000000000000    0.5000000000000000    0.5000000000000000 Cu
   0.0000000000000000    0.0000000000000000    0.0000000000000000 Cu
   0.5000000000000000    0.5000000000000000    0.0000000000000000 Cu
   0.5000000000000000    0.0000000000000000    0.5000000000000000 Cu
   0.1007211700000000    0.6007264200000000    0.8992803300000000 S
   0.8992788300000000    0.3992735800000000    0.1007196700000000 S
   0.3992768300000000    0.1007264200000000    0.8992843300000000 S
   0.8992788300000000    0.1007264200000000    0.6007196700000000 S
   0.6007231700000000    0.6007264200000000    0.6007156700000000 S
   0.3992768300000000    0.3992735800000000    0.3992843300000000 S
   0.1007211700000000    0.8992735800000000    0.3992803300000000 S
   0.6007231700000000    0.8992735800000000    0.1007156700000000 S
