Na1 Li3
1.0
      3.8071021983       0.0000000000      -3.4197243769
     -0.7570992933       3.7310625576      -3.4197243769
      0.0000000000       0.0000000000       5.1174741780
Na Li
1 3
direct
   0.0000000000000000    0.0000000000000000    0.0000000000000000 Na
   0.7500000000000000    0.2500000000000000    0.5000000000000000 Li
   0.2500000000000000    0.7500000000000000    0.5000000000000000 Li
   0.5000000000000000    0.5000000000000000    0.0000000000000000 Li
