Na1 Li3
1.0
      4.0186078760       0.0000000000      -3.6097090645
     -0.7991603651       3.9383438108      -3.6097090645
      0.0000000000       0.0000000000       5.4017782990
Na Li
1 3
direct
   0.0000000000000000    0.0000000000000000    0.0000000000000000 Na
   0.7500000000000000    0.2500000000000000    0.5000000000000000 Li
   0.2500000000000000    0.7500000000000000    0.5000000000000000 Li
   0.5000000000000000    0.5000000000000000    0.0000000000000000 Li
