Na1 Li3
1.0
      3.5955965206       0.0000000000      -3.2297396893
     -0.7150382214       3.5237813044      -3.2297396893
      0.0000000000       0.0000000000       4.8331700570
Na Li
1 3
direct
   0.0000000000000000    0.0000000000000000    0.0000000000000000 Na
   0.7500000000000000    0.2500000000000000    0.5000000000000000 Li
   0.2500000000000000    0.7500000000000000    0.5000000000000000 Li
   0.5000000000000000    0.5000000000000000    0.0000000000000000 Li
