Zr1 Cu1
1.0
      3.0900310375       0.0000000000       0.0000000000
     -0.0000000000       3.0900310375       0.0000000000
      0.0000000000       0.0000000000       3.0900310375
Zr Cu
1 1
direct
   0.5000000000000000    0.5000000000000000    0.5000000000000000 Zr
   0.0000000000000000    0.0000000000000000    0.0000000000000000 Cu
