Zr1 Cu1
1.0
      2.9273978250       0.0000000000       0.0000000000
     -0.0000000000       2.9273978250       0.0000000000
      0.0000000000       0.0000000000       2.9273978250
Zr Cu
1 1
direct
   0.5000000000000000    0.5000000000000000    0.5000000000000000 Zr
   0.0000000000000000    0.0000000000000000    0.0000000000000000 Cu
