Dy6 Mn23
1.0
      6.9770374844       0.0000000000       4.0281944698
      2.3256791615       6.5780140237       4.0281944698
      0.0000000000       0.0000000000       8.0563889395
Dy Mn
6 23
direct
   0.7038010000000000    0.7038010000000000    0.2961990000000000 Dy
   0.2961990000000000    0.7038010000000000    0.2961990000000000 Dy
   0.7038010000000000    0.2961990000000000    0.2961990000000000 Dy
   0.2961990000000000    0.2961990000000000    0.7038010000000000 Dy
   0.7038010000000000    0.2961990000000000    0.7038010000000000 Dy
   0.2961990000000000    0.7038010000000000    0.7038010000000000 Dy
   0.0000000000000000    0.0000000000000000    0.0000000000000000 Mn
   0.0000000000000000    0.0000000000000000    0.5000000000000000 Mn
   0.5000000000000000    0.0000000000000000    0.5000000000000000 Mn
   0.0000000000000000    0.5000000000000000    0.5000000000000000 Mn
   0.5000000000000000    0.5000000000000000    0.0000000000000000 Mn
   0.0000000000000000    0.5000000000000000    0.0000000000000000 Mn
   0.5000000000000000    0.0000000000000000    0.0000000000000000 Mn
   0.8781380000000000    0.8781380000000000    0.3655850000000000 Mn
   0.8781380000000000    0.3655850000000000    0.8781380000000000 Mn
   0.3655850000000000    0.8781380000000000    0.8781380000000000 Mn
   0.8781380000000000    0.8781380000000000    0.8781380000000000 Mn
   0.1218620000000000    0.1218620000000000    0.6344150000000000 Mn
   0.1218620000000000    0.6344150000000000    0.1218620000000000 Mn
   0.6344150000000000    0.1218620000000000    0.1218620000000000 Mn
   0.1218620000000000    0.1218620000000000    0.1218620000000000 Mn
   0.6776090000000000    0.6776090000000000    0.9671740000000000 Mn
   0.6776090000000000    0.9671740000000000    0.6776090000000000 Mn
   0.9671740000000000    0.6776090000000000    0.6776090000000000 Mn
   0.6776090000000000    0.6776090000000000    0.6776090000000000 Mn
   0.3223910000000000    0.3223910000000000    0.0328260000000000 Mn
   0.3223910000000000    0.0328260000000000    0.3223910000000000 Mn
   0.0328260000000000    0.3223910000000000    0.3223910000000000 Mn
   0.3223910000000000    0.3223910000000000    0.3223910000000000 Mn
