K3 Re1
1.0
      3.8632141703       0.0000000000      -3.1007304417
     -0.8887482557       3.7595944281      -3.1007304417
      0.0000000000       0.0000000000       4.9536807525
K Re
3 1
direct
   0.7500000000000000    0.2500000000000000    0.5000000000000000 K
   0.2500000000000000    0.7500000000000000    0.5000000000000000 K
   0.5000000000000000    0.5000000000000000    0.0000000000000000 K
   0.0000000000000000    0.0000000000000000    0.0000000000000000 Re
