K3 Re1
1.0
      4.3783093930       0.0000000000      -3.5141611672
     -1.0072480232       4.2608736852      -3.5141611672
      0.0000000000       0.0000000000       5.6141715195
K Re
3 1
direct
   0.7500000000000000    0.2500000000000000    0.5000000000000000 K
   0.2500000000000000    0.7500000000000000    0.5000000000000000 K
   0.5000000000000000    0.5000000000000000    0.0000000000000000 K
   0.0000000000000000    0.0000000000000000    0.0000000000000000 Re
