K3 Re1
1.0
      4.8934046157       0.0000000000      -3.9275918928
     -1.1257477906       4.7621529422      -3.9275918928
      0.0000000000       0.0000000000       6.2746622865
K Re
3 1
direct
   0.7500000000000000    0.2500000000000000    0.5000000000000000 K
   0.2500000000000000    0.7500000000000000    0.5000000000000000 K
   0.5000000000000000    0.5000000000000000    0.0000000000000000 K
   0.0000000000000000    0.0000000000000000    0.0000000000000000 Re
