K3 Re1
1.0
      4.6358570044       0.0000000000      -3.7208765300
     -1.0664979069       4.5115133137      -3.7208765300
      0.0000000000       0.0000000000       5.9444169030
K Re
3 1
direct
   0.7500000000000000    0.2500000000000000    0.5000000000000000 K
   0.2500000000000000    0.7500000000000000    0.5000000000000000 K
   0.5000000000000000    0.5000000000000000    0.0000000000000000 K
   0.0000000000000000    0.0000000000000000    0.0000000000000000 Re
