K3 Re1
1.0
      4.1207617817       0.0000000000      -3.3074458045
     -0.9479981394       4.0102340566      -3.3074458045
      0.0000000000       0.0000000000       5.2839261360
K Re
3 1
direct
   0.7500000000000000    0.2500000000000000    0.5000000000000000 K
   0.2500000000000000    0.7500000000000000    0.5000000000000000 K
   0.5000000000000000    0.5000000000000000    0.0000000000000000 K
   0.0000000000000000    0.0000000000000000    0.0000000000000000 Re
