Li2 B2
1.0
      3.2921263849       0.0000000000      -0.6749405490
     -0.6473934472       2.0700125545      -2.5670158994
      0.0000000000       0.0000000000       3.3606012675
Li B
2 2
direct
   0.5000000000000000    0.0000000000000000    0.5000000000000000 Li
   0.0000000000000000    0.5000000000000000    0.5000000000000000 Li
   0.9729030000000000    0.7500000000000000    0.2229030000000000 B
   0.0270970000000000    0.2500000000000000    0.7770970000000000 B
