Li2 B2
1.0
      4.1700267543       0.0000000000      -0.8549246954
     -0.8200316998       2.6220159024      -3.2515534726
      0.0000000000       0.0000000000       4.2567616055
Li B
2 2
direct
   0.5000000000000000    0.0000000000000000    0.5000000000000000 Li
   0.0000000000000000    0.5000000000000000    0.5000000000000000 Li
   0.9729030000000000    0.7500000000000000    0.2229030000000000 B
   0.0270970000000000    0.2500000000000000    0.7770970000000000 B
