Li2 B2
1.0
      3.5116014773       0.0000000000      -0.7199365856
     -0.6905530103       2.2080133915      -2.7381502927
      0.0000000000       0.0000000000       3.5846413520
Li B
2 2
direct
   0.5000000000000000    0.0000000000000000    0.5000000000000000 Li
   0.0000000000000000    0.5000000000000000    0.5000000000000000 Li
   0.9729030000000000    0.7500000000000000    0.2229030000000000 B
   0.0270970000000000    0.2500000000000000    0.7770970000000000 B
