Li2 Be2
1.0
      3.3488703000       0.0000000000       0.0000000000
     -0.0000000000       1.9775155825       0.4712911458
      0.0000000000       0.0000000000       4.9093249320
Li Be
2 2
direct
   0.7500000000000000    0.5095530000000000    0.1495870000000000 Li
   0.2500000000000000    0.4904470000000000    0.8504130000000000 Li
   0.7500000000000000    0.1932850000000000    0.5837230000000000 Be
   0.2500000000000000    0.8067150000000000    0.4162770000000000 Be
