K6 Rh2
1.0
      6.6220731380       0.0000000000       0.0000000000
     -3.3110369914       5.7348833194       0.0000000000
      0.0000000000       0.0000000000       4.6851731060
K Rh
6 2
direct
   0.1883797700000000    0.3767605300000000    0.2500000000000000 K
   0.6232394700000000    0.8116202300000001    0.2500000000000000 K
   0.1883797700000000    0.8116202300000001    0.2500000000000000 K
   0.8116948899999999    0.6233887900000000    0.7500000000000000 K
   0.3766112100000000    0.1883051100000000    0.7500000000000000 K
   0.8116948899999999    0.1883051100000000    0.7500000000000000 K
   0.3333333333333333    0.6666666666666666    0.7500000000000000 Rh
   0.6666666666666666    0.3333333333333333    0.2500000000000000 Rh
