Li6 Te2
1.0
      4.9840514160       0.0000000000       0.0000000000
     -2.4920259219       4.3163150165       0.0000000000
      0.0000000000       0.0000000000       3.6501400000
Li Te
6 2
direct
   0.1667890000000000    0.3335790000000000    0.2500000000000000 Li
   0.6664210000000000    0.8332110000000000    0.2500000000000000 Li
   0.1667890000000000    0.8332110000000000    0.2500000000000000 Li
   0.8332110000000000    0.6664210000000000    0.7500000000000000 Li
   0.3335790000000000    0.1667890000000000    0.7500000000000000 Li
   0.8332110000000000    0.1667890000000000    0.7500000000000000 Li
   0.3333333333333333    0.6666666666666666    0.7500000000000000 Te
   0.6666666666666666    0.3333333333333333    0.2500000000000000 Te
