Li2 Mg4
1.0
      3.5891011598       0.0000000000       1.8886343657
      1.3030768757       3.3441946402       1.8886343657
      0.0000000000       0.0000000000       4.4888061825
Li Mg
2 4
direct
   0.0876017900000000    0.9123982100000000    0.2500000000000000 Li
   0.9123982100000000    0.0876017900000000    0.7500000000000000 Li
   0.2440373000000000    0.4185486100000000    0.7502714100000000 Mg
   0.5814513900000000    0.7559627000000000    0.7497285900000000 Mg
   0.4185486100000000    0.2440373000000000    0.2502714100000000 Mg
   0.7559627000000000    0.5814513900000000    0.2497285900000000 Mg
