Li2 Mg4
1.0
      4.5461948024       0.0000000000       2.3922701966
      1.6505640426       4.2359798775       2.3922701966
      0.0000000000       0.0000000000       5.6858211645
Li Mg
2 4
direct
   0.0876017900000000    0.9123982100000000    0.2500000000000000 Li
   0.9123982100000000    0.0876017900000000    0.7500000000000000 Li
   0.2440373000000000    0.4185486100000000    0.7502714100000000 Mg
   0.5814513900000000    0.7559627000000000    0.7497285900000000 Mg
   0.4185486100000000    0.2440373000000000    0.2502714100000000 Mg
   0.7559627000000000    0.5814513900000000    0.2497285900000000 Mg
