Mn4 S8
1.0
      5.9865806000       0.0000000000       0.0000000000
     -0.0000000000       4.5433875973       2.0833695305
      0.0000000000       0.0000000000       5.1932413620
Mn S
4 8
direct
   0.4365370000000000    0.2884170000000000    0.4680140000000000 Mn
   0.9365370000000000    0.7115830000000000    0.0319860000000000 Mn
   0.5634630000000000    0.7115830000000000    0.5319860000000000 Mn
   0.0634630000000000    0.2884170000000000    0.9680140000000000 Mn
   0.1455490000000000    0.4348890000000000    0.2365760000000000 S
   0.6455490000000000    0.5651110000000000    0.2634240000000000 S
   0.8544510000000000    0.5651110000000000    0.7634240000000000 S
   0.3544510000000000    0.4348890000000000    0.7365760000000000 S
   0.9247890000000000    0.9539350000000000    0.2364520000000000 S
   0.4247890000000000    0.0460650000000000    0.2635480000000000 S
   0.0752110000000000    0.0460650000000000    0.7635480000000000 S
   0.5752110000000000    0.9539350000000000    0.7364520000000000 S
