Fe3 Cu1
1.0
      2.7512854930       0.0000000000       1.5884554200
      0.9170951643       2.5939368388       1.5884554200
      0.0000000000       0.0000000000       3.1769108400
Fe Cu
3 1
direct
   0.2500000000000000    0.2500000000000000    0.2500000000000000 Fe
   0.7500000000000000    0.7500000000000000    0.7500000000000000 Fe
   0.5000000000000000    0.5000000000000000    0.5000000000000000 Fe
   0.0000000000000000    0.0000000000000000    0.0000000000000000 Cu
