Fe3 Cu1
1.0
      3.0951961796       0.0000000000       1.7870123475
      1.0317320599       2.9181789436       1.7870123475
      0.0000000000       0.0000000000       3.5740246950
Fe Cu
3 1
direct
   0.2500000000000000    0.2500000000000000    0.2500000000000000 Fe
   0.7500000000000000    0.7500000000000000    0.7500000000000000 Fe
   0.5000000000000000    0.5000000000000000    0.5000000000000000 Fe
   0.0000000000000000    0.0000000000000000    0.0000000000000000 Cu
