Fe3 Cu1
1.0
      2.5793301497       0.0000000000       1.4891769563
      0.8597767166       2.4318157863       1.4891769563
      0.0000000000       0.0000000000       2.9783539125
Fe Cu
3 1
direct
   0.2500000000000000    0.2500000000000000    0.2500000000000000 Fe
   0.7500000000000000    0.7500000000000000    0.7500000000000000 Fe
   0.5000000000000000    0.5000000000000000    0.5000000000000000 Fe
   0.0000000000000000    0.0000000000000000    0.0000000000000000 Cu
