Fe3 Cu1
1.0
      3.2671515229       0.0000000000       1.8862908113
      1.0890505076       3.0802999960       1.8862908113
      0.0000000000       0.0000000000       3.7725816225
Fe Cu
3 1
direct
   0.2500000000000000    0.2500000000000000    0.2500000000000000 Fe
   0.7500000000000000    0.7500000000000000    0.7500000000000000 Fe
   0.5000000000000000    0.5000000000000000    0.5000000000000000 Fe
   0.0000000000000000    0.0000000000000000    0.0000000000000000 Cu
