Fe3 Cu1
1.0
      2.9232408363       0.0000000000       1.6877338838
      0.9744136121       2.7560578912       1.6877338838
      0.0000000000       0.0000000000       3.3754677675
Fe Cu
3 1
direct
   0.2500000000000000    0.2500000000000000    0.2500000000000000 Fe
   0.7500000000000000    0.7500000000000000    0.7500000000000000 Fe
   0.5000000000000000    0.5000000000000000    0.5000000000000000 Fe
   0.0000000000000000    0.0000000000000000    0.0000000000000000 Cu
