Cu3 Si1
1.0
      2.9532430559       0.0000000000      -2.6272795982
     -0.5948969083       2.8927049998      -2.6272795982
      0.0000000000       0.0000000000       3.9527512740
Cu Si
3 1
direct
   0.7500000000000000    0.2500000000000000    0.4999990000000000 Cu
   0.2500000000000000    0.7500000000000000    0.4999990000000000 Cu
   0.5000010000000000    0.5000010000000000    0.0000000000000000 Cu
   0.0000000000000000    0.0000000000000000    0.0000000000000000 Si
