Cu3 Si1
1.0
      2.6251049386       0.0000000000      -2.3353596428
     -0.5287972519       2.5712933331      -2.3353596428
      0.0000000000       0.0000000000       3.5135566880
Cu Si
3 1
direct
   0.7500000000000000    0.2500000000000000    0.4999990000000000 Cu
   0.2500000000000000    0.7500000000000000    0.4999990000000000 Cu
   0.5000010000000000    0.5000010000000000    0.0000000000000000 Cu
   0.0000000000000000    0.0000000000000000    0.0000000000000000 Si
