Cu3 Si1
1.0
      3.1173121145       0.0000000000      -2.7732395758
     -0.6279467366       3.0534108331      -2.7732395758
      0.0000000000       0.0000000000       4.1723485670
Cu Si
3 1
direct
   0.7500000000000000    0.2500000000000000    0.4999990000000000 Cu
   0.2500000000000000    0.7500000000000000    0.4999990000000000 Cu
   0.5000010000000000    0.5000010000000000    0.0000000000000000 Cu
   0.0000000000000000    0.0000000000000000    0.0000000000000000 Si
