Cu3 Si1
1.0
      2.7891739972       0.0000000000      -2.4813196205
     -0.5618470801       2.7319991664      -2.4813196205
      0.0000000000       0.0000000000       3.7331539810
Cu Si
3 1
direct
   0.7500000000000000    0.2500000000000000    0.4999990000000000 Cu
   0.2500000000000000    0.7500000000000000    0.4999990000000000 Cu
   0.5000010000000000    0.5000010000000000    0.0000000000000000 Cu
   0.0000000000000000    0.0000000000000000    0.0000000000000000 Si
