Cu3 Si1
1.0
      2.4610358799       0.0000000000      -2.1893996651
     -0.4957474236       2.4105874998      -2.1893996651
      0.0000000000       0.0000000000       3.2939593950
Cu Si
3 1
direct
   0.7500000000000000    0.2500000000000000    0.4999990000000000 Cu
   0.2500000000000000    0.7500000000000000    0.4999990000000000 Cu
   0.5000010000000000    0.5000010000000000    0.0000000000000000 Cu
   0.0000000000000000    0.0000000000000000    0.0000000000000000 Si
