K1 Hg3
1.0
      3.7055266200       0.0000000000       0.0000000000
     -0.0000000000       3.7055266200       0.0000000000
      0.0000000000       0.0000000000       3.7055266200
K Hg
1 3
direct
   0.0000000000000000    0.0000000000000000    0.0000000000000000 K
   0.0000000000000000    0.5000000000000000    0.5000000000000000 Hg
   0.5000000000000000    0.0000000000000000    0.5000000000000000 Hg
   0.5000000000000000    0.5000000000000000    0.0000000000000000 Hg
