Li1 Y3
1.0
      3.8210589892       0.0000000000       2.2060894360
      1.2736863297       3.6025289634       2.2060894360
      0.0000000000       0.0000000000       4.4121788720
Li Y
1 3
direct
   0.0000000000000000    0.0000000000000000    0.0000000000000000 Li
   0.2500000000000000    0.2500000000000000    0.2500000000000000 Y
   0.7500000000000000    0.7500000000000000    0.7500000000000000 Y
   0.5000000000000000    0.5000000000000000    0.5000000000000000 Y
