Li1 Y3
1.0
      4.0598751760       0.0000000000       2.3439700258
      1.3532917253       3.8276870236       2.3439700258
      0.0000000000       0.0000000000       4.6879400515
Li Y
1 3
direct
   0.0000000000000000    0.0000000000000000    0.0000000000000000 Li
   0.2500000000000000    0.2500000000000000    0.2500000000000000 Y
   0.7500000000000000    0.7500000000000000    0.7500000000000000 Y
   0.5000000000000000    0.5000000000000000    0.5000000000000000 Y
