Li1 Y3
1.0
      4.2986913628       0.0000000000       2.4818506155
      1.4328971209       4.0528450839       2.4818506155
      0.0000000000       0.0000000000       4.9637012310
Li Y
1 3
direct
   0.0000000000000000    0.0000000000000000    0.0000000000000000 Li
   0.2500000000000000    0.2500000000000000    0.2500000000000000 Y
   0.7500000000000000    0.7500000000000000    0.7500000000000000 Y
   0.5000000000000000    0.5000000000000000    0.5000000000000000 Y
