K4 O2
1.0
      5.9923290000       0.0000000000       0.0000000000
     -0.0000000000       2.8581025756       1.1504974117
      0.0000000000       0.0000000000       3.2569512825
K O
4 2
direct
   0.8834290000000000    0.0825750000000000    0.0375190000000000 K
   0.6287950000000000    0.3575930000000000    0.4079650000000000 K
   0.1287950000000000    0.6424070000000000    0.5920350000000000 K
   0.3834290000000000    0.9174250000000000    0.9624810000000000 K
   0.2377760000000000    0.2900740000000000    0.2420840000000000 O
   0.7377760000000000    0.7099259999999999    0.7579160000000000 O
