Ce3 Cu1
1.0
      3.8933510085       0.0000000000      -3.7005422486
     -0.7170803706       3.8267450682      -3.7005422486
      0.0000000000       0.0000000000       5.3714239275
Ce Cu
3 1
direct
   0.7500000000000000    0.2500000000000000    0.5000000000000000 Ce
   0.2500000000000000    0.7500000000000000    0.5000000000000000 Ce
   0.5000000000000000    0.5000000000000000    0.0000000000000000 Ce
   0.0000000000000000    0.0000000000000000    0.0000000000000000 Cu
