Ce3 Cu1
1.0
      3.6884377975       0.0000000000      -3.5057768671
     -0.6793392985       3.6253374331      -3.5057768671
      0.0000000000       0.0000000000       5.0887174050
Ce Cu
3 1
direct
   0.7500000000000000    0.2500000000000000    0.5000000000000000 Ce
   0.2500000000000000    0.7500000000000000    0.5000000000000000 Ce
   0.5000000000000000    0.5000000000000000    0.0000000000000000 Ce
   0.0000000000000000    0.0000000000000000    0.0000000000000000 Cu
