Ce3 Cu1
1.0
      3.0736981646       0.0000000000      -2.9214807226
     -0.5661160821       3.0211145275      -2.9214807226
      0.0000000000       0.0000000000       4.2405978375
Ce Cu
3 1
direct
   0.7500000000000000    0.2500000000000000    0.5000000000000000 Ce
   0.2500000000000000    0.7500000000000000    0.5000000000000000 Ce
   0.5000000000000000    0.5000000000000000    0.0000000000000000 Ce
   0.0000000000000000    0.0000000000000000    0.0000000000000000 Cu
