Ce3 Cu1
1.0
      3.4835245865       0.0000000000      -3.3110114856
     -0.6415982263       3.4239297979      -3.3110114856
      0.0000000000       0.0000000000       4.8060108825
Ce Cu
3 1
direct
   0.7500000000000000    0.2500000000000000    0.5000000000000000 Ce
   0.2500000000000000    0.7500000000000000    0.5000000000000000 Ce
   0.5000000000000000    0.5000000000000000    0.0000000000000000 Ce
   0.0000000000000000    0.0000000000000000    0.0000000000000000 Cu
