Ce3 Cu1
1.0
      3.2786113755       0.0000000000      -3.1162461041
     -0.6038571542       3.2225221627      -3.1162461041
      0.0000000000       0.0000000000       4.5233043600
Ce Cu
3 1
direct
   0.7500000000000000    0.2500000000000000    0.5000000000000000 Ce
   0.2500000000000000    0.7500000000000000    0.5000000000000000 Ce
   0.5000000000000000    0.5000000000000000    0.0000000000000000 Ce
   0.0000000000000000    0.0000000000000000    0.0000000000000000 Cu
