K2 N2
1.0
      3.4927018500       0.0000000000       0.0000000000
     -0.0000000000       3.4927018500       0.0000000000
      0.0000000000       0.0000000000       4.9173333000
K N
2 2
direct
   0.0000000000000000    0.5000000000000000    0.2473440000000000 K
   0.5000000000000000    0.0000000000000000    0.7526560000000000 K
   0.0000000000000000    0.5000000000000000    0.7430050000000000 N
   0.5000000000000000    0.0000000000000000    0.2569950000000000 N
