Li4 Mg2
1.0
      6.0590043375       0.0000000000       0.0000000000
     -5.6224024256       2.2583455285       0.0000000000
      0.0000000000       0.0000000000       3.8188183050
Li Mg
4 2
direct
   0.0002026200000000    0.9997973800000000    0.0000000000000000 Li
   0.3317020100000000    0.6682979900000000    0.0000000000000000 Li
   0.6669984300000000    0.3330015700000000    0.0000000000000000 Li
   0.4435050400000000    0.5564949600000000    0.5000000000000000 Li
   0.1098602800000000    0.8901397200000000    0.5000000000000000 Mg
   0.7810636200000000    0.2189363800000000    0.5000000000000000 Mg
