Li4 Mg2
1.0
      7.2708052050       0.0000000000       0.0000000000
     -6.7468829108       2.7100146342       0.0000000000
      0.0000000000       0.0000000000       4.5825819660
Li Mg
4 2
direct
   0.0002026200000000    0.9997973800000000    0.0000000000000000 Li
   0.3317020100000000    0.6682979900000000    0.0000000000000000 Li
   0.6669984300000000    0.3330015700000000    0.0000000000000000 Li
   0.4435050400000000    0.5564949600000000    0.5000000000000000 Li
   0.1098602800000000    0.8901397200000000    0.5000000000000000 Mg
   0.7810636200000000    0.2189363800000000    0.5000000000000000 Mg
