Li2 Fe2
1.0
      1.9009248000       0.0000000000       0.0000000000
     -0.9504623995       3.6219535992       0.0000000000
      0.0000000000       0.0000000000       3.6481144000
Li Fe
2 2
direct
   0.0000000000000000    0.0000000000000000    0.0000000000000000 Li
   0.0000000000000000    0.0000000000000000    0.5000000000000000 Li
   0.2566430000000000    0.5132850000000000    0.2500000000000000 Fe
   0.7433570000000000    0.4867140000000000    0.7500000000000000 Fe
