Li1 O8
1.0
      3.1534105049       0.0000000000       1.1535095605
      0.8709865848       3.8013765561       1.4045405550
      0.0000000000       0.0000000000       4.1447815050
Li O
1 8
direct
   0.5484400000000000    0.9671460000000000    0.5725170000000001 Li
   0.8445180000000000    0.2598090000000000    0.8014070000000000 O
   0.1460330000000000    0.2290540000000000    0.7379750000000000 O
   0.1772140000000000    0.7304659999999999    0.2399710000000000 O
   0.8757300000000000    0.7518460000000000    0.3125330000000000 O
   0.8363810000000000    0.1894230000000000    0.2274290000000000 O
   0.1622020000000000    0.8142779999999999    0.7341460000000000 O
   0.1404410000000000    0.1353790000000000    0.1639590000000000 O
   0.8523740000000000    0.8868850000000000    0.8053010000000000 O
