Nd2 Zn4
1.0
      3.3594148916       0.0000000000       1.4630492353
      1.6845134808       4.2067759600       0.7204882322
      0.0000000000       0.0000000000       4.5884267760
Nd Zn
2 4
direct
   0.5405748500000001    0.7094251499999999    0.2094251500000000 Nd
   0.4594251500000000    0.2905748500000000    0.7905748500000001 Nd
   0.8351513300000000    0.7228063000000000    0.6068910300000000 Zn
   0.1648486700000000    0.2771937000000000    0.3931089700000000 Zn
   0.8351513300000000    0.1068910300000000    0.2228063000000000 Zn
   0.1648486700000000    0.8931089700000000    0.7771937000000000 Zn
