Cu1 Cl2
1.0
      3.2285429134       0.0000000000      -4.6654822683
     -0.3148126492       3.2131576898      -4.6654822683
      0.0000000000       0.0000000000       5.6736420525
Cu Cl
1 2
direct
   0.0000000000000000    0.0000000000000000    0.0000000000000000 Cu
   0.5000000000000000    0.0000000000000000    0.5000000000000000 Cl
   0.0000000000000000    0.5000000000000000    0.5000000000000000 Cl
