Cu1 Cl2
1.0
      3.8742514961       0.0000000000      -5.5985787220
     -0.3777751791       3.8557892278      -5.5985787220
      0.0000000000       0.0000000000       6.8083704630
Cu Cl
1 2
direct
   0.0000000000000000    0.0000000000000000    0.0000000000000000 Cu
   0.5000000000000000    0.0000000000000000    0.5000000000000000 Cl
   0.0000000000000000    0.5000000000000000    0.5000000000000000 Cl
