Cu1 Cl2
1.0
      3.6590153019       0.0000000000      -5.2875465708
     -0.3567876691       3.6415787152      -5.2875465708
      0.0000000000       0.0000000000       6.4301276595
Cu Cl
1 2
direct
   0.0000000000000000    0.0000000000000000    0.0000000000000000 Cu
   0.5000000000000000    0.0000000000000000    0.5000000000000000 Cl
   0.0000000000000000    0.5000000000000000    0.5000000000000000 Cl
