Cu1 Cl2
1.0
      4.0894876904       0.0000000000      -5.9096108732
     -0.3987626890       4.0699997405      -5.9096108732
      0.0000000000       0.0000000000       7.1866132665
Cu Cl
1 2
direct
   0.0000000000000000    0.0000000000000000    0.0000000000000000 Cu
   0.5000000000000000    0.0000000000000000    0.5000000000000000 Cl
   0.0000000000000000    0.5000000000000000    0.5000000000000000 Cl
