Cu1 Cl2
1.0
      3.4437791077       0.0000000000      -4.9765144195
     -0.3358001592       3.4273682025      -4.9765144195
      0.0000000000       0.0000000000       6.0518848560
Cu Cl
1 2
direct
   0.0000000000000000    0.0000000000000000    0.0000000000000000 Cu
   0.5000000000000000    0.0000000000000000    0.5000000000000000 Cl
   0.0000000000000000    0.5000000000000000    0.5000000000000000 Cl
