Li5 B4
1.0
      4.0501293051       0.0000000000       0.3137202119
     -0.1543493764       4.0471871291       0.3137202119
      0.0000000000       0.0000000000       3.2455727055
Li B
5 4
direct
   0.5704080000000000    0.5704080000000000    0.7112630000000000 Li
   0.3883610000000000    0.8791290000000000    0.2385800000000000 Li
   0.8791290000000000    0.3883610000000000    0.2385800000000000 Li
   0.3737440000000000    0.3737440000000000    0.2370480000000000 Li
   0.1653480000000000    0.1653480000000000    0.7590370000000000 Li
   0.8492850000000000    0.8492850000000000    0.9704370000000000 B
   0.6573570000000000    0.0780570000000000    0.7230090000000000 B
   0.0780570000000000    0.6573570000000000    0.7230090000000000 B
   0.8883100000000000    0.8883100000000000    0.4740360000000000 B
