Cu1 Au3
1.0
      2.7347785150       0.0000000000      -2.5203468981
     -0.5253932041       2.6838359688      -2.5203468981
      0.0000000000       0.0000000000       3.7190270250
Cu Au
1 3
direct
   0.0000000000000000    0.0000000000000000    0.0000000000000000 Cu
   0.7500000000000000    0.2500000000000000    0.5000000000000000 Au
   0.2500000000000000    0.7500000000000000    0.5000000000000000 Au
   0.5000000000000000    0.5000000000000000    0.0000000000000000 Au
