Cu1 Au3
1.0
      2.9170970827       0.0000000000      -2.6883700246
     -0.5604194177       2.8627583667      -2.6883700246
      0.0000000000       0.0000000000       3.9669621600
Cu Au
1 3
direct
   0.0000000000000000    0.0000000000000000    0.0000000000000000 Cu
   0.7500000000000000    0.2500000000000000    0.5000000000000000 Au
   0.2500000000000000    0.7500000000000000    0.5000000000000000 Au
   0.5000000000000000    0.5000000000000000    0.0000000000000000 Au
