Cu1 Au3
1.0
      3.4640527857       0.0000000000      -3.1924394042
     -0.6654980585       3.3995255604      -3.1924394042
      0.0000000000       0.0000000000       4.7107675650
Cu Au
1 3
direct
   0.0000000000000000    0.0000000000000000    0.0000000000000000 Cu
   0.7500000000000000    0.2500000000000000    0.5000000000000000 Au
   0.2500000000000000    0.7500000000000000    0.5000000000000000 Au
   0.5000000000000000    0.5000000000000000    0.0000000000000000 Au
