Cu1 Au3
1.0
      3.0994156503       0.0000000000      -2.8563931511
     -0.5954456313       3.0416807646      -2.8563931511
      0.0000000000       0.0000000000       4.2148972950
Cu Au
1 3
direct
   0.0000000000000000    0.0000000000000000    0.0000000000000000 Cu
   0.7500000000000000    0.2500000000000000    0.5000000000000000 Au
   0.2500000000000000    0.7500000000000000    0.5000000000000000 Au
   0.5000000000000000    0.5000000000000000    0.0000000000000000 Au
