Cu1 Au3
1.0
      3.2817342180       0.0000000000      -3.0244162777
     -0.6304718449       3.2206031625      -3.0244162777
      0.0000000000       0.0000000000       4.4628324300
Cu Au
1 3
direct
   0.0000000000000000    0.0000000000000000    0.0000000000000000 Cu
   0.7500000000000000    0.2500000000000000    0.5000000000000000 Au
   0.2500000000000000    0.7500000000000000    0.5000000000000000 Au
   0.5000000000000000    0.5000000000000000    0.0000000000000000 Au
