Li2 Al2
1.0
      3.2921993760       0.0000000000      -1.8984532321
     -1.0947468937       3.1048518515      -1.8984539758
      0.0000000000       0.0000000000       3.8038082335
Li Al
2 2
direct
   0.3750000000000000    0.6250000000000000    0.7500000000000000 Li
   0.6250000000000000    0.3750000000000000    0.2500000000000000 Li
   0.8750000000000000    0.1250000000000000    0.7500000000000000 Al
   0.1250000000000000    0.8750000000000000    0.2500000000000000 Al
