Li2 In2
1.0
      3.3386491987       0.0000000000       1.9275701993
      1.1128830646       3.1477092488       1.9275702003
      0.0000000000       0.0000000000       3.8551412080
Li In
2 2
direct
   0.6250000000000000    0.6250000000000000    0.6250000000000000 Li
   0.3750000000000000    0.3750000000000000    0.3750000000000000 Li
   0.1250000000000000    0.1250000000000000    0.1250000000000000 In
   0.8750000000000000    0.8750000000000000    0.8750000000000000 In
