Li2 In2
1.0
      3.7559803485       0.0000000000       2.1685164742
      1.2519934476       3.5411729049       2.1685164753
      0.0000000000       0.0000000000       4.3370338590
Li In
2 2
direct
   0.6250000000000000    0.6250000000000000    0.6250000000000000 Li
   0.3750000000000000    0.3750000000000000    0.3750000000000000 Li
   0.1250000000000000    0.1250000000000000    0.1250000000000000 In
   0.8750000000000000    0.8750000000000000    0.8750000000000000 In
