Fe2 Cu6
1.0
      4.9104399235       0.0000000000       0.0000000000
     -2.4552200827       4.2525656477       0.0000000000
      0.0000000000       0.0000000000       3.9519050000
Fe Cu
2 6
direct
   0.3333333333333333    0.6666666666666666    0.7500000000000000 Fe
   0.6666666666666666    0.3333333333333333    0.2500000000000000 Fe
   0.1667760000000000    0.3335510000000000    0.2500000000000000 Cu
   0.6664490000000000    0.8332240000000000    0.2500000000000000 Cu
   0.1667760000000000    0.8332240000000000    0.2500000000000000 Cu
   0.8332240000000000    0.6664490000000000    0.7500000000000000 Cu
   0.3335510000000000    0.1667760000000000    0.7500000000000000 Cu
   0.8332240000000000    0.1667760000000000    0.7500000000000000 Cu
