Li1 Ge3
1.0
      2.8173929770       0.0000000000      -2.7192217887
     -0.5080244862       2.7712117040      -2.7192217887
      0.0000000000       0.0000000000       3.9155932275
Li Ge
1 3
direct
   0.0000000000000000    0.0000000000000000    0.0000000000000000 Li
   0.7500000000000000    0.2500000000000000    0.5000000000000000 Ge
   0.2500000000000000    0.7500000000000000    0.5000000000000000 Ge
   0.5000000000000000    0.5000000000000000    0.0000000000000000 Ge
