Li1 Ge3
1.0
      3.1930453740       0.0000000000      -3.0817846939
     -0.5757610844       3.1407065979      -3.0817846939
      0.0000000000       0.0000000000       4.4376723245
Li Ge
1 3
direct
   0.0000000000000000    0.0000000000000000    0.0000000000000000 Li
   0.7500000000000000    0.2500000000000000    0.5000000000000000 Ge
   0.2500000000000000    0.7500000000000000    0.5000000000000000 Ge
   0.5000000000000000    0.5000000000000000    0.0000000000000000 Ge
