Cu3 Te2
1.0
      3.8462948110       0.0000000000       0.0000000000
     -0.0000000000       3.8462948110       0.0000000000
      0.0000000000       0.0000000000       5.6651261270
Cu Te
3 2
direct
   0.5000000000000000    0.0000000000000000    0.9934612800000000 Cu
   0.0000000000000000    0.5000000000000000    0.9934612800000000 Cu
   0.0000000000000000    0.0000000000000000    0.2721384600000000 Cu
   0.0000000000000000    0.0000000000000000    0.7211286600000000 Te
   0.5000000000000000    0.5000000000000000    0.2898103200000000 Te
