Th2 Zn17
1.0
      5.7084640067       0.0000000000       0.7131844716
      0.6296290074       5.6736329456       0.7131860686
      0.0000000000       0.0000000000       5.7528414460
Th Zn
2 17
direct
   0.3376306800000000    0.3376306800000000    0.3376306800000000 Th
   0.6623693200000000    0.6623693200000000    0.6623693200000000 Th
   0.0000000000000000    0.0000000000000000    0.5000000000000000 Zn
   0.5000000000000000    0.0000000000000000    0.0000000000000000 Zn
   0.0000000000000000    0.5000000000000000    0.0000000000000000 Zn
   0.2910555700000000    0.7089444300000000    0.0000000000000000 Zn
   0.0000000000000000    0.2910555700000000    0.7089444300000000 Zn
   0.7089444300000000    0.0000000000000000    0.2910555700000000 Zn
   0.7089444300000000    0.2910555700000000    0.0000000000000000 Zn
   0.0000000000000000    0.7089444300000000    0.2910555700000000 Zn
   0.2910555700000000    0.0000000000000000    0.7089444300000000 Zn
   0.6502322400000000    0.1605776300000000    0.6502322400000000 Zn
   0.6502322400000000    0.6502322400000000    0.1605776300000000 Zn
   0.1605776300000000    0.6502322400000000    0.6502322400000000 Zn
   0.8394223700000000    0.3497677600000000    0.3497677600000000 Zn
   0.3497677600000000    0.8394223700000000    0.3497677600000000 Zn
   0.3497677600000000    0.3497677600000000    0.8394223700000000 Zn
   0.0988168600000000    0.0988168600000000    0.0988168600000000 Zn
   0.9011831400000000    0.9011831400000000    0.9011831400000000 Zn
