Li1 Au3
1.0
      3.0997914993       0.0000000000      -2.9441807132
     -0.5714833432       3.0466562208      -2.9441807132
      0.0000000000       0.0000000000       4.2751499870
Li Au
1 3
direct
   0.0000000000000000    0.0000000000000000    0.0000000000000000 Li
   0.7500010000000000    0.2500010000000000    0.5000000000000000 Au
   0.2500010000000000    0.7500010000000000    0.5000000000000000 Au
   0.5000000000000000    0.5000000000000000    0.0000000000000000 Au
