Li1 Au3
1.0
      3.2821321758       0.0000000000      -3.1173678140
     -0.6051000104       3.2258712926      -3.1173678140
      0.0000000000       0.0000000000       4.5266293980
Li Au
1 3
direct
   0.0000000000000000    0.0000000000000000    0.0000000000000000 Li
   0.7500010000000000    0.2500010000000000    0.5000000000000000 Au
   0.2500010000000000    0.7500010000000000    0.5000000000000000 Au
   0.5000000000000000    0.5000000000000000    0.0000000000000000 Au
