Li1 Au3
1.0
      2.9174508229       0.0000000000      -2.7709936124
     -0.5378666759       2.8674411490      -2.7709936124
      0.0000000000       0.0000000000       4.0236705760
Li Au
1 3
direct
   0.0000000000000000    0.0000000000000000    0.0000000000000000 Li
   0.7500010000000000    0.2500010000000000    0.5000000000000000 Au
   0.2500010000000000    0.7500010000000000    0.5000000000000000 Au
   0.5000000000000000    0.5000000000000000    0.0000000000000000 Au
