Li3 B1
1.0
      2.5736176606       0.0000000000      -1.6031043141
     -0.7934139907       2.4482651209      -1.6031043141
      0.0000000000       0.0000000000       3.0320704650
Li B
3 1
direct
   0.7500000000000000    0.2500000000000000    0.5000000000000000 Li
   0.2500000000000000    0.7500000000000000    0.5000000000000000 Li
   0.5000000000000000    0.5000000000000000    0.0000000000000000 Li
   0.0000000000000000    0.0000000000000000    0.0000000000000000 B
