Li3 B1
1.0
      3.2599157034       0.0000000000      -2.0305987979
     -1.0049910549       3.1011358198      -2.0305987979
      0.0000000000       0.0000000000       3.8406225890
Li B
3 1
direct
   0.7500000000000000    0.2500000000000000    0.5000000000000000 Li
   0.2500000000000000    0.7500000000000000    0.5000000000000000 Li
   0.5000000000000000    0.5000000000000000    0.0000000000000000 Li
   0.0000000000000000    0.0000000000000000    0.0000000000000000 B
