Cu6 O8
1.0
      4.4184552431       0.0000000000       2.5509963240
      1.4728184144       4.1657595530       2.5509963240
      0.0000000000       0.0000000000       5.1019926480
Cu O
6 8
direct
   0.5000000000000000    0.0000000000000000    0.5000000000000000 Cu
   0.5000000000000000    0.0000000000000000    0.0000000000000000 Cu
   0.0000000000000000    0.0000000000000000    0.5000000000000000 Cu
   0.0000000000000000    0.5000000000000000    0.0000000000000000 Cu
   0.0000000000000000    0.5000000000000000    0.5000000000000000 Cu
   0.5000000000000000    0.5000000000000000    0.0000000000000000 Cu
   0.8575690000000000    0.4272930000000000    0.8575690000000000 O
   0.1424310000000000    0.1424310000000000    0.1424310000000000 O
   0.8575690000000000    0.8575690000000000    0.8575690000000000 O
   0.5727070000000000    0.1424310000000000    0.1424310000000000 O
   0.8575690000000000    0.8575690000000000    0.4272930000000000 O
   0.4272930000000000    0.8575690000000000    0.8575690000000000 O
   0.1424310000000000    0.1424310000000000    0.5727070000000000 O
   0.1424310000000000    0.5727070000000000    0.1424310000000000 O
