Cu6 O8
1.0
      4.1423017904       0.0000000000       2.3915590538
      1.3807672635       3.9053995809       2.3915590538
      0.0000000000       0.0000000000       4.7831181075
Cu O
6 8
direct
   0.5000000000000000    0.0000000000000000    0.5000000000000000 Cu
   0.5000000000000000    0.0000000000000000    0.0000000000000000 Cu
   0.0000000000000000    0.0000000000000000    0.5000000000000000 Cu
   0.0000000000000000    0.5000000000000000    0.0000000000000000 Cu
   0.0000000000000000    0.5000000000000000    0.5000000000000000 Cu
   0.5000000000000000    0.5000000000000000    0.0000000000000000 Cu
   0.8575690000000000    0.4272930000000000    0.8575690000000000 O
   0.1424310000000000    0.1424310000000000    0.1424310000000000 O
   0.8575690000000000    0.8575690000000000    0.8575690000000000 O
   0.5727070000000000    0.1424310000000000    0.1424310000000000 O
   0.8575690000000000    0.8575690000000000    0.4272930000000000 O
   0.4272930000000000    0.8575690000000000    0.8575690000000000 O
   0.1424310000000000    0.1424310000000000    0.5727070000000000 O
   0.1424310000000000    0.5727070000000000    0.1424310000000000 O
