Cu6 O8
1.0
      4.9707621485       0.0000000000       2.8698708645
      1.6569207162       4.6864794971       2.8698708645
      0.0000000000       0.0000000000       5.7397417290
Cu O
6 8
direct
   0.5000000000000000    0.0000000000000000    0.5000000000000000 Cu
   0.5000000000000000    0.0000000000000000    0.0000000000000000 Cu
   0.0000000000000000    0.0000000000000000    0.5000000000000000 Cu
   0.0000000000000000    0.5000000000000000    0.0000000000000000 Cu
   0.0000000000000000    0.5000000000000000    0.5000000000000000 Cu
   0.5000000000000000    0.5000000000000000    0.0000000000000000 Cu
   0.8575690000000000    0.4272930000000000    0.8575690000000000 O
   0.1424310000000000    0.1424310000000000    0.1424310000000000 O
   0.8575690000000000    0.8575690000000000    0.8575690000000000 O
   0.5727070000000000    0.1424310000000000    0.1424310000000000 O
   0.8575690000000000    0.8575690000000000    0.4272930000000000 O
   0.4272930000000000    0.8575690000000000    0.8575690000000000 O
   0.1424310000000000    0.1424310000000000    0.5727070000000000 O
   0.1424310000000000    0.5727070000000000    0.1424310000000000 O
