Cu6 O8
1.0
      5.2469156012       0.0000000000       3.0293081348
      1.7489718671       4.9468394692       3.0293081348
      0.0000000000       0.0000000000       6.0586162695
Cu O
6 8
direct
   0.5000000000000000    0.0000000000000000    0.5000000000000000 Cu
   0.5000000000000000    0.0000000000000000    0.0000000000000000 Cu
   0.0000000000000000    0.0000000000000000    0.5000000000000000 Cu
   0.0000000000000000    0.5000000000000000    0.0000000000000000 Cu
   0.0000000000000000    0.5000000000000000    0.5000000000000000 Cu
   0.5000000000000000    0.5000000000000000    0.0000000000000000 Cu
   0.8575690000000000    0.4272930000000000    0.8575690000000000 O
   0.1424310000000000    0.1424310000000000    0.1424310000000000 O
   0.8575690000000000    0.8575690000000000    0.8575690000000000 O
   0.5727070000000000    0.1424310000000000    0.1424310000000000 O
   0.8575690000000000    0.8575690000000000    0.4272930000000000 O
   0.4272930000000000    0.8575690000000000    0.8575690000000000 O
   0.1424310000000000    0.1424310000000000    0.5727070000000000 O
   0.1424310000000000    0.5727070000000000    0.1424310000000000 O
