Cu6 O8
1.0
      4.6946086958       0.0000000000       2.7104335943
      1.5648695653       4.4261195251       2.7104335943
      0.0000000000       0.0000000000       5.4208671885
Cu O
6 8
direct
   0.5000000000000000    0.0000000000000000    0.5000000000000000 Cu
   0.5000000000000000    0.0000000000000000    0.0000000000000000 Cu
   0.0000000000000000    0.0000000000000000    0.5000000000000000 Cu
   0.0000000000000000    0.5000000000000000    0.0000000000000000 Cu
   0.0000000000000000    0.5000000000000000    0.5000000000000000 Cu
   0.5000000000000000    0.5000000000000000    0.0000000000000000 Cu
   0.8575690000000000    0.4272930000000000    0.8575690000000000 O
   0.1424310000000000    0.1424310000000000    0.1424310000000000 O
   0.8575690000000000    0.8575690000000000    0.8575690000000000 O
   0.5727070000000000    0.1424310000000000    0.1424310000000000 O
   0.8575690000000000    0.8575690000000000    0.4272930000000000 O
   0.4272930000000000    0.8575690000000000    0.8575690000000000 O
   0.1424310000000000    0.1424310000000000    0.5727070000000000 O
   0.1424310000000000    0.5727070000000000    0.1424310000000000 O
