Dy1 Zn5
1.0
      4.1829987200       0.0000000000       0.0000000000
     -2.0914989584       3.6225831010       0.0000000000
      0.0000000000       0.0000000000       3.3408030160
Dy Zn
1 5
direct
   0.0000000000000000    0.0000000000000000    0.0000000000000000 Dy
   0.0000000000000000    0.5000000000000000    0.5000000000000000 Zn
   0.3333333333333333    0.6666666666666666    0.0000000000000000 Zn
   0.6666666666666666    0.3333333333333333    0.0000000000000000 Zn
   0.5000000000000000    0.0000000000000000    0.5000000000000000 Zn
   0.5000000000000000    0.5000000000000000    0.5000000000000000 Zn
