Dy1 Zn5
1.0
      4.9673109800       0.0000000000       0.0000000000
     -2.4836550131       4.3018174324       0.0000000000
      0.0000000000       0.0000000000       3.9672035815
Dy Zn
1 5
direct
   0.0000000000000000    0.0000000000000000    0.0000000000000000 Dy
   0.0000000000000000    0.5000000000000000    0.5000000000000000 Zn
   0.3333333333333333    0.6666666666666666    0.0000000000000000 Zn
   0.6666666666666666    0.3333333333333333    0.0000000000000000 Zn
   0.5000000000000000    0.0000000000000000    0.5000000000000000 Zn
   0.5000000000000000    0.5000000000000000    0.5000000000000000 Zn
