Mn1 O2
1.0
      2.5176442178       0.0000000000       5.8913725991
      1.2060643386       2.2099631287       5.8913733558
      0.0000000000       0.0000000000       6.4067780880
Mn O
1 2
direct
   0.0000000000000000    0.0000000000000000    0.0000000000000000 Mn
   0.6209636800000000    0.6209636800000000    0.6209636800000000 O
   0.3790363200000000    0.3790363200000000    0.3790363200000000 O
