Mn1 O2
1.0
      2.2379059714       0.0000000000       5.2367756436
      1.0720571899       1.9644116699       5.2367763163
      0.0000000000       0.0000000000       5.6949138560
Mn O
1 2
direct
   0.0000000000000000    0.0000000000000000    0.0000000000000000 Mn
   0.6209636800000000    0.6209636800000000    0.6209636800000000 O
   0.3790363200000000    0.3790363200000000    0.3790363200000000 O
