Mn1 O2
1.0
      2.0980368482       0.0000000000       4.9094771659
      1.0050536155       1.8416359405       4.9094777965
      0.0000000000       0.0000000000       5.3389817400
Mn O
1 2
direct
   0.0000000000000000    0.0000000000000000    0.0000000000000000 Mn
   0.6209636800000000    0.6209636800000000    0.6209636800000000 O
   0.3790363200000000    0.3790363200000000    0.3790363200000000 O
