Mg1 O2
1.0
      2.4934211989       0.0000000000       2.2547467469
      1.0009947988       2.2836721936       2.2547467469
      0.0000000000       0.0000000000       3.3617003430
Mg O
1 2
direct
   0.0000000000000000    0.0000000000000000    0.0000000000000000 Mg
   0.5712140000000000    0.5712140000000000    0.5712140000000000 O
   0.4287860000000000    0.4287860000000000    0.4287860000000000 O
