Mg1 O2
1.0
      2.7867648694       0.0000000000       2.5200110701
      1.1187588928       2.5523395105       2.5200110701
      0.0000000000       0.0000000000       3.7571945010
Mg O
1 2
direct
   0.0000000000000000    0.0000000000000000    0.0000000000000000 Mg
   0.5712140000000000    0.5712140000000000    0.5712140000000000 O
   0.4287860000000000    0.4287860000000000    0.4287860000000000 O
