Mg1 O2
1.0
      2.6400930341       0.0000000000       2.3873789085
      1.0598768458       2.4180058521       2.3873789085
      0.0000000000       0.0000000000       3.5594474220
Mg O
1 2
direct
   0.0000000000000000    0.0000000000000000    0.0000000000000000 Mg
   0.5712140000000000    0.5712140000000000    0.5712140000000000 O
   0.4287860000000000    0.4287860000000000    0.4287860000000000 O
