Mg1 O2
1.0
      2.3467493637       0.0000000000       2.1221145853
      0.9421127518       2.1493385352       2.1221145853
      0.0000000000       0.0000000000       3.1639532640
Mg O
1 2
direct
   0.0000000000000000    0.0000000000000000    0.0000000000000000 Mg
   0.5712140000000000    0.5712140000000000    0.5712140000000000 O
   0.4287860000000000    0.4287860000000000    0.4287860000000000 O
