Mg1 O2
1.0
      2.2000775284       0.0000000000       1.9894824238
      0.8832307048       2.0150048767       1.9894824238
      0.0000000000       0.0000000000       2.9662061850
Mg O
1 2
direct
   0.0000000000000000    0.0000000000000000    0.0000000000000000 Mg
   0.5712140000000000    0.5712140000000000    0.5712140000000000 O
   0.4287860000000000    0.4287860000000000    0.4287860000000000 O
