K1 Rb3
1.0
      6.2093473815       0.0000000000      -3.6510925552
     -2.0320421231       5.8674355313      -3.6510925552
      0.0000000000       0.0000000000       7.2032264820
K Rb
1 3
direct
   0.0000000000000000    0.0000000000000000    0.0000000000000000 K
   0.7500000000000000    0.2500000000000000    0.5000000000000000 Rb
   0.2500000000000000    0.7500000000000000    0.5000000000000000 Rb
   0.5000000000000000    0.5000000000000000    0.0000000000000000 Rb
