K1 Rb3
1.0
      5.8643836381       0.0000000000      -3.4482540799
     -1.9191508941       5.5414668907      -3.4482540799
      0.0000000000       0.0000000000       6.8030472330
K Rb
1 3
direct
   0.0000000000000000    0.0000000000000000    0.0000000000000000 K
   0.7500000000000000    0.2500000000000000    0.5000000000000000 Rb
   0.2500000000000000    0.7500000000000000    0.5000000000000000 Rb
   0.5000000000000000    0.5000000000000000    0.0000000000000000 Rb
