K1 Rb3
1.0
      5.1744561513       0.0000000000      -3.0425771293
     -1.6933684360       4.8895296094      -3.0425771293
      0.0000000000       0.0000000000       6.0026887350
K Rb
1 3
direct
   0.0000000000000000    0.0000000000000000    0.0000000000000000 K
   0.7500000000000000    0.2500000000000000    0.5000000000000000 Rb
   0.2500000000000000    0.7500000000000000    0.5000000000000000 Rb
   0.5000000000000000    0.5000000000000000    0.0000000000000000 Rb
