K1 Rb3
1.0
      5.5194198947       0.0000000000      -3.2454156046
     -1.8062596650       5.2154982501      -3.2454156046
      0.0000000000       0.0000000000       6.4028679840
K Rb
1 3
direct
   0.0000000000000000    0.0000000000000000    0.0000000000000000 K
   0.7500000000000000    0.2500000000000000    0.5000000000000000 Rb
   0.2500000000000000    0.7500000000000000    0.5000000000000000 Rb
   0.5000000000000000    0.5000000000000000    0.0000000000000000 Rb
