K1 Rb3
1.0
      6.5543111249       0.0000000000      -3.8539310305
     -2.1449333522       6.1934041719      -3.8539310305
      0.0000000000       0.0000000000       7.6034057310
K Rb
1 3
direct
   0.0000000000000000    0.0000000000000000    0.0000000000000000 K
   0.7500000000000000    0.2500000000000000    0.5000000000000000 Rb
   0.2500000000000000    0.7500000000000000    0.5000000000000000 Rb
   0.5000000000000000    0.5000000000000000    0.0000000000000000 Rb
