Li3 Ca1
1.0
      3.9214359827       0.0000000000       2.2640421203
      1.3071453276       3.6971653005       2.2640421203
      0.0000000000       0.0000000000       4.5280842405
Li Ca
3 1
direct
   0.7500000000000000    0.7500000000000000    0.7500000000000000 Li
   0.2500000000000000    0.2500000000000000    0.2500000000000000 Li
   0.0000000000000000    0.0000000000000000    0.0000000000000000 Li
   0.5000000000000000    0.5000000000000000    0.5000000000000000 Ca
