Li3 Ca1
1.0
      3.6907632779       0.0000000000       2.1308631720
      1.2302544260       3.4796849887       2.1308631720
      0.0000000000       0.0000000000       4.2617263440
Li Ca
3 1
direct
   0.7500000000000000    0.7500000000000000    0.7500000000000000 Li
   0.2500000000000000    0.2500000000000000    0.2500000000000000 Li
   0.0000000000000000    0.0000000000000000    0.0000000000000000 Li
   0.5000000000000000    0.5000000000000000    0.5000000000000000 Ca
