Li3 Ca1
1.0
      3.4600905730       0.0000000000       1.9976842238
      1.1533635243       3.2622046769       1.9976842238
      0.0000000000       0.0000000000       3.9953684475
Li Ca
3 1
direct
   0.7500000000000000    0.7500000000000000    0.7500000000000000 Li
   0.2500000000000000    0.2500000000000000    0.2500000000000000 Li
   0.0000000000000000    0.0000000000000000    0.0000000000000000 Li
   0.5000000000000000    0.5000000000000000    0.5000000000000000 Ca
