Li3 Ca1
1.0
      4.1521086876       0.0000000000       2.3972210685
      1.3840362292       3.9146456123       2.3972210685
      0.0000000000       0.0000000000       4.7944421370
Li Ca
3 1
direct
   0.7500000000000000    0.7500000000000000    0.7500000000000000 Li
   0.2500000000000000    0.2500000000000000    0.2500000000000000 Li
   0.0000000000000000    0.0000000000000000    0.0000000000000000 Li
   0.5000000000000000    0.5000000000000000    0.5000000000000000 Ca
