K5 Bi4
1.0
      5.8871635215       0.0000000000       2.0590078974
      3.7330021148       4.5522949750       2.0590078974
      0.0000000000       0.0000000000      10.4992452090
K Bi
5 4
direct
   0.7457922800000000    0.7457922800000000    0.6674215200000000 K
   0.2579564400000000    0.2579564400000000    0.3355347400000000 K
   0.4054909700000000    0.4054909700000000    0.8884862300000000 K
   0.5950707400000000    0.5950707400000000    0.1142984700000000 K
   0.5061730000000000    0.5061730000000000    0.4980687800000000 K
   0.0442651900000000    0.0442651900000000    0.6724573100000000 Bi
   0.9563622000000001    0.9563622000000001    0.3313768100000000 Bi
   0.1100680700000000    0.1100680700000000    0.8935289100000000 Bi
   0.8908181100000000    0.8908181100000000    0.1098282200000000 Bi
