K5 Bi4
1.0
      5.5600988814       0.0000000000       1.9446185698
      3.5256131084       4.2993896986       1.9446185698
      0.0000000000       0.0000000000       9.9159538085
K Bi
5 4
direct
   0.7457922800000000    0.7457922800000000    0.6674215200000000 K
   0.2579564400000000    0.2579564400000000    0.3355347400000000 K
   0.4054909700000000    0.4054909700000000    0.8884862300000000 K
   0.5950707400000000    0.5950707400000000    0.1142984700000000 K
   0.5061730000000000    0.5061730000000000    0.4980687800000000 K
   0.0442651900000000    0.0442651900000000    0.6724573100000000 Bi
   0.9563622000000001    0.9563622000000001    0.3313768100000000 Bi
   0.1100680700000000    0.1100680700000000    0.8935289100000000 Bi
   0.8908181100000000    0.8908181100000000    0.1098282200000000 Bi
