Mg1 O1
1.0
      2.2035156750       0.0000000000       0.0000000000
     -1.1017585149       1.9083001611       0.0000000000
      0.0000000000       0.0000000000       2.0097600000
Mg O
1 1
direct
   0.0000000000000000    0.0000000000000000    0.0000000000000000 Mg
   0.3333333333333333    0.6666666666666666    0.5000000000000000 O
