Mg1 O1
1.0
      2.7911198550       0.0000000000       0.0000000000
     -1.3955607856       2.4171802040       0.0000000000
      0.0000000000       0.0000000000       2.5456960000
Mg O
1 1
direct
   0.0000000000000000    0.0000000000000000    0.0000000000000000 Mg
   0.3333333333333333    0.6666666666666666    0.5000000000000000 O
