Mg1 O1
1.0
      2.6442188100       0.0000000000       0.0000000000
     -1.3221102179       2.2899601933       0.0000000000
      0.0000000000       0.0000000000       2.4117120000
Mg O
1 1
direct
   0.0000000000000000    0.0000000000000000    0.0000000000000000 Mg
   0.3333333333333333    0.6666666666666666    0.5000000000000000 O
