Mg1 O1
1.0
      2.4973177650       0.0000000000       0.0000000000
     -1.2486596503       2.1627401825       0.0000000000
      0.0000000000       0.0000000000       2.2777280000
Mg O
1 1
direct
   0.0000000000000000    0.0000000000000000    0.0000000000000000 Mg
   0.3333333333333333    0.6666666666666666    0.5000000000000000 O
