Li4 In8
1.0
      5.4624217517       0.0000000000       3.1537306688
      1.8208072506       5.1500206164       3.1537306688
      0.0000000000       0.0000000000       6.3074613375
Li In
4 8
direct
   0.1250000000000000    0.1250000000000000    0.6250000000000000 Li
   0.1250000000000000    0.1250000000000000    0.1250000000000000 Li
   0.1250000000000000    0.6250000000000000    0.1250000000000000 Li
   0.6250000000000000    0.1250000000000000    0.1250000000000000 Li
   0.3952640400000000    0.3952640400000000    0.8142068700000000 In
   0.3952640400000000    0.3952640400000000    0.3952640400000000 In
   0.8547359600000000    0.4357931300000000    0.8547359600000000 In
   0.8547359600000000    0.8547359600000000    0.8547359600000000 In
   0.8547359600000000    0.8547359600000000    0.4357931300000000 In
   0.4357931300000000    0.8547359600000000    0.8547359600000000 In
   0.3952640400000000    0.8142068700000000    0.3952640400000000 In
   0.8142068700000000    0.3952640400000000    0.3952640400000000 In
