Li3 Cr1
1.0
      3.6613729538       0.0000000000       2.1138946605
      1.2204576513       3.4519755255       2.1138946605
      0.0000000000       0.0000000000       4.2277893210
Li Cr
3 1
direct
   0.5000000000000000    0.5000000000000000    0.5000000000000000 Li
   0.7500000000000000    0.7500000000000000    0.7500000000000000 Li
   0.2500000000000000    0.2500000000000000    0.2500000000000000 Li
   0.0000000000000000    0.0000000000000000    0.0000000000000000 Cr
