Li3 Cr1
1.0
      3.4579633453       0.0000000000       1.9964560683
      1.1526544484       3.2601991074       1.9964560683
      0.0000000000       0.0000000000       3.9929121365
Li Cr
3 1
direct
   0.5000000000000000    0.5000000000000000    0.5000000000000000 Li
   0.7500000000000000    0.7500000000000000    0.7500000000000000 Li
   0.2500000000000000    0.2500000000000000    0.2500000000000000 Li
   0.0000000000000000    0.0000000000000000    0.0000000000000000 Cr
