Li3 Cr1
1.0
      3.8647825624       0.0000000000       2.2313332528
      1.2882608541       3.6437519436       2.2313332528
      0.0000000000       0.0000000000       4.4626665055
Li Cr
3 1
direct
   0.5000000000000000    0.5000000000000000    0.5000000000000000 Li
   0.7500000000000000    0.7500000000000000    0.7500000000000000 Li
   0.2500000000000000    0.2500000000000000    0.2500000000000000 Li
   0.0000000000000000    0.0000000000000000    0.0000000000000000 Cr
