Mg3 Cu1
1.0
      3.4804323980       0.0000000000      -2.8802994456
     -0.3572412668       2.4812873064      -3.7583409310
      0.0000000000       0.0000000000       4.5176912880
Mg Cu
3 1
direct
   0.7994699800000000    0.7177102700000000    0.0817587100000000 Mg
   0.0840863300000000    0.5000000000000000    0.5840863300000000 Mg
   0.3640484400000000    0.2822897300000000    0.0817587100000000 Mg
   0.5857222500000000    0.0000000000000000    0.5857222500000000 Cu
