Mg3 Cu1
1.0
      3.9154864478       0.0000000000      -3.2403368763
     -0.4018964251       2.7914482197      -4.2281335474
      0.0000000000       0.0000000000       5.0824026990
Mg Cu
3 1
direct
   0.7994699800000000    0.7177102700000000    0.0817587100000000 Mg
   0.0840863300000000    0.5000000000000000    0.5840863300000000 Mg
   0.3640484400000000    0.2822897300000000    0.0817587100000000 Mg
   0.5857222500000000    0.0000000000000000    0.5857222500000000 Cu
