Mg3 Cu1
1.0
      3.6979594229       0.0000000000      -3.0603181610
     -0.3795688460       2.6363677631      -3.9932372392
      0.0000000000       0.0000000000       4.8000469935
Mg Cu
3 1
direct
   0.7994699800000000    0.7177102700000000    0.0817587100000000 Mg
   0.0840863300000000    0.5000000000000000    0.5840863300000000 Mg
   0.3640484400000000    0.2822897300000000    0.0817587100000000 Mg
   0.5857222500000000    0.0000000000000000    0.5857222500000000 Cu
