Cs2 K6
1.0
      7.9762532400       0.0000000000       0.0000000000
     -3.9881350606       6.9076433227       0.0000000000
      0.0000000000       0.0000000000       6.5633993840
Cs K
2 6
direct
   0.3333333333333333    0.6666666666666666    0.7500000000000000 Cs
   0.6666666666666666    0.3333333333333333    0.2500000000000000 Cs
   0.1608716800000000    0.3217453600000000    0.2500000000000000 K
   0.6782546400000000    0.8391283200000000    0.2500000000000000 K
   0.1608716800000000    0.8391283200000000    0.2500000000000000 K
   0.8391283200000000    0.6782546400000000    0.7500000000000000 K
   0.3217453600000000    0.1608716800000000    0.7500000000000000 K
   0.8391283200000000    0.1608716800000000    0.7500000000000000 K
