Cs2 K6
1.0
      8.4747690675       0.0000000000       0.0000000000
     -4.2373935019       7.3393710303       0.0000000000
      0.0000000000       0.0000000000       6.9736118455
Cs K
2 6
direct
   0.3333333333333333    0.6666666666666666    0.7500000000000000 Cs
   0.6666666666666666    0.3333333333333333    0.2500000000000000 Cs
   0.1608716800000000    0.3217453600000000    0.2500000000000000 K
   0.6782546400000000    0.8391283200000000    0.2500000000000000 K
   0.1608716800000000    0.8391283200000000    0.2500000000000000 K
   0.8391283200000000    0.6782546400000000    0.7500000000000000 K
   0.3217453600000000    0.1608716800000000    0.7500000000000000 K
   0.8391283200000000    0.1608716800000000    0.7500000000000000 K
