Cu3 N1
1.0
      2.2070025008       0.0000000000      -4.1374466185
     -0.1379778441       2.2026852143      -4.1374466185
      0.0000000000       0.0000000000       4.6892776160
Cu N
3 1
direct
   0.0000000000000000    0.0000000000000000    0.0000000000000000 Cu
   0.3218330000000000    0.3218330000000000    0.0000000000000000 Cu
   0.6781670000000000    0.6781670000000000    0.0000000000000000 Cu
   0.5000000000000000    0.5000000000000000    0.0000000000000000 N
