Cu3 N1
1.0
      2.6208154697       0.0000000000      -4.9132178595
     -0.1638486899       2.6156886919      -4.9132178595
      0.0000000000       0.0000000000       5.5685171690
Cu N
3 1
direct
   0.0000000000000000    0.0000000000000000    0.0000000000000000 Cu
   0.3218330000000000    0.3218330000000000    0.0000000000000000 Cu
   0.6781670000000000    0.6781670000000000    0.0000000000000000 Cu
   0.5000000000000000    0.5000000000000000    0.0000000000000000 N
