Cu3 N1
1.0
      2.4828778134       0.0000000000      -4.6546274459
     -0.1552250747       2.4780208661      -4.6546274459
      0.0000000000       0.0000000000       5.2754373180
Cu N
3 1
direct
   0.0000000000000000    0.0000000000000000    0.0000000000000000 Cu
   0.3218330000000000    0.3218330000000000    0.0000000000000000 Cu
   0.6781670000000000    0.6781670000000000    0.0000000000000000 Cu
   0.5000000000000000    0.5000000000000000    0.0000000000000000 N
