Cu3 N1
1.0
      2.3449401571       0.0000000000      -4.3960370322
     -0.1466014594       2.3403530402      -4.3960370322
      0.0000000000       0.0000000000       4.9823574670
Cu N
3 1
direct
   0.0000000000000000    0.0000000000000000    0.0000000000000000 Cu
   0.3218330000000000    0.3218330000000000    0.0000000000000000 Cu
   0.6781670000000000    0.6781670000000000    0.0000000000000000 Cu
   0.5000000000000000    0.5000000000000000    0.0000000000000000 N
