Cu3 N1
1.0
      2.0690648445       0.0000000000      -3.8788562049
     -0.1293542289       2.0650173884      -3.8788562049
      0.0000000000       0.0000000000       4.3961977650
Cu N
3 1
direct
   0.0000000000000000    0.0000000000000000    0.0000000000000000 Cu
   0.3218330000000000    0.3218330000000000    0.0000000000000000 Cu
   0.6781670000000000    0.6781670000000000    0.0000000000000000 Cu
   0.5000000000000000    0.5000000000000000    0.0000000000000000 N
