Ho1 Zn1
1.0
      2.9988838780       0.0000000000       0.0000000000
     -0.0000000000       2.9988838780       0.0000000000
      0.0000000000       0.0000000000       2.9988838780
Ho Zn
1 1
direct
   0.0000000000000000    0.0000000000000000    0.0000000000000000 Ho
   0.5000000000000000    0.5000000000000000    0.5000000000000000 Zn
