Ho1 Zn1
1.0
      2.8224789440       0.0000000000       0.0000000000
     -0.0000000000       2.8224789440       0.0000000000
      0.0000000000       0.0000000000       2.8224789440
Ho Zn
1 1
direct
   0.0000000000000000    0.0000000000000000    0.0000000000000000 Ho
   0.5000000000000000    0.5000000000000000    0.5000000000000000 Zn
