Cu6 Pd4
1.0
      2.5266908750       0.0000000000       0.0000000000
     -0.0000000000       2.5266908750       0.0000000000
      0.0000000000       0.0000000000      12.4067060800
Cu Pd
6 4
direct
   0.5000000000000000    0.5000000000000000    0.0889456500000000 Cu
   0.5000000000000000    0.5000000000000000    0.2953710200000000 Cu
   0.5000000000000000    0.5000000000000000    0.5000000000000000 Cu
   0.5000000000000000    0.5000000000000000    0.7046289800000000 Cu
   0.5000000000000000    0.5000000000000000    0.9110543500000000 Cu
   0.0000000000000000    0.0000000000000000    0.0000000000000000 Cu
   0.0000000000000000    0.0000000000000000    0.1912516200000000 Pd
   0.0000000000000000    0.0000000000000000    0.3972501300000000 Pd
   0.0000000000000000    0.0000000000000000    0.6027498700000000 Pd
   0.0000000000000000    0.0000000000000000    0.8087483800000000 Pd
