Li5 B4
1.0
      4.2927367248       0.0000000000       0.4589141945
      0.4124691947       4.2728746473       0.4589141945
      0.0000000000       0.0000000000       4.3171966260
Li B
5 4
direct
   0.7119380000000000    0.2784580000000000    0.7119380000000000 Li
   0.7119380000000000    0.7119380000000000    0.2784580000000000 Li
   0.2784580000000000    0.7119380000000000    0.7119380000000000 Li
   0.7870130000000000    0.7870130000000000    0.7870130000000000 Li
   0.3098810000000000    0.3098810000000000    0.3098810000000000 Li
   0.2205930000000000    0.8119350000000000    0.2205930000000000 B
   0.2205930000000000    0.2205930000000000    0.8119350000000000 B
   0.8119350000000000    0.2205930000000000    0.2205930000000000 B
   0.0226510000000000    0.0226510000000000    0.0226510000000000 B
