Li5 B4
1.0
      3.8157659776       0.0000000000       0.4079237285
      0.3666392842       3.7981107976       0.4079237285
      0.0000000000       0.0000000000       3.8375081120
Li B
5 4
direct
   0.7119380000000000    0.2784580000000000    0.7119380000000000 Li
   0.7119380000000000    0.7119380000000000    0.2784580000000000 Li
   0.2784580000000000    0.7119380000000000    0.7119380000000000 Li
   0.7870130000000000    0.7870130000000000    0.7870130000000000 Li
   0.3098810000000000    0.3098810000000000    0.3098810000000000 Li
   0.2205930000000000    0.8119350000000000    0.2205930000000000 B
   0.2205930000000000    0.2205930000000000    0.8119350000000000 B
   0.8119350000000000    0.2205930000000000    0.2205930000000000 B
   0.0226510000000000    0.0226510000000000    0.0226510000000000 B
