Cu3 Rh1
1.0
      2.5090529545       0.0000000000      -2.1897916786
     -0.5183767268       2.4549200186      -2.1897916786
      0.0000000000       0.0000000000       3.3302453850
Cu Rh
3 1
direct
   0.7500000000000000    0.2500000000000000    0.5000000000000000 Cu
   0.2500000000000000    0.7500000000000000    0.5000000000000000 Cu
   0.5000000000000000    0.5000000000000000    0.0000000000000000 Cu
   0.0000000000000000    0.0000000000000000    0.0000000000000000 Rh
