Cu3 Rh1
1.0
      3.1781337424       0.0000000000      -2.7737361262
     -0.6566105206       3.1095653569      -2.7737361262
      0.0000000000       0.0000000000       4.2183108210
Cu Rh
3 1
direct
   0.7500000000000000    0.2500000000000000    0.5000000000000000 Cu
   0.2500000000000000    0.7500000000000000    0.5000000000000000 Cu
   0.5000000000000000    0.5000000000000000    0.0000000000000000 Cu
   0.0000000000000000    0.0000000000000000    0.0000000000000000 Rh
