Cu3 Rh1
1.0
      3.0108635454       0.0000000000      -2.6277500143
     -0.6220520721       2.9459040223      -2.6277500143
      0.0000000000       0.0000000000       3.9962944620
Cu Rh
3 1
direct
   0.7500000000000000    0.2500000000000000    0.5000000000000000 Cu
   0.2500000000000000    0.7500000000000000    0.5000000000000000 Cu
   0.5000000000000000    0.5000000000000000    0.0000000000000000 Cu
   0.0000000000000000    0.0000000000000000    0.0000000000000000 Rh
