Cu3 Rh1
1.0
      2.8435933485       0.0000000000      -2.4817639024
     -0.5874936237       2.7822426878      -2.4817639024
      0.0000000000       0.0000000000       3.7742781030
Cu Rh
3 1
direct
   0.7500000000000000    0.2500000000000000    0.5000000000000000 Cu
   0.2500000000000000    0.7500000000000000    0.5000000000000000 Cu
   0.5000000000000000    0.5000000000000000    0.0000000000000000 Cu
   0.0000000000000000    0.0000000000000000    0.0000000000000000 Rh
