Cu3 Rh1
1.0
      2.6763231515       0.0000000000      -2.3357777905
     -0.5529351752       2.6185813532      -2.3357777905
      0.0000000000       0.0000000000       3.5522617440
Cu Rh
3 1
direct
   0.7500000000000000    0.2500000000000000    0.5000000000000000 Cu
   0.2500000000000000    0.7500000000000000    0.5000000000000000 Cu
   0.5000000000000000    0.5000000000000000    0.0000000000000000 Cu
   0.0000000000000000    0.0000000000000000    0.0000000000000000 Rh
