K3 Ce1
1.0
      4.4293584135       0.0000000000      -4.5189425932
     -0.7386353662       4.3673371465      -4.5189425932
      0.0000000000       0.0000000000       6.3277214000
K Ce
3 1
direct
   0.7500000000000000    0.2500000000000000    0.5000000000000000 K
   0.2500000000000000    0.7500000000000000    0.5000000000000000 K
   0.5000000000000000    0.5000000000000000    0.0000000000000000 K
   0.0000000000000000    0.0000000000000000    0.0000000000000000 Ce
