K3 Ce1
1.0
      4.7061933143       0.0000000000      -4.8013765053
     -0.7848000766       4.6402957181      -4.8013765053
      0.0000000000       0.0000000000       6.7232039875
K Ce
3 1
direct
   0.7500000000000000    0.2500000000000000    0.5000000000000000 K
   0.2500000000000000    0.7500000000000000    0.5000000000000000 K
   0.5000000000000000    0.5000000000000000    0.0000000000000000 K
   0.0000000000000000    0.0000000000000000    0.0000000000000000 Ce
