K3 Ce1
1.0
      4.1525235127       0.0000000000      -4.2365086811
     -0.6924706558       4.0943785748      -4.2365086811
      0.0000000000       0.0000000000       5.9322388125
K Ce
3 1
direct
   0.7500000000000000    0.2500000000000000    0.5000000000000000 K
   0.2500000000000000    0.7500000000000000    0.5000000000000000 K
   0.5000000000000000    0.5000000000000000    0.0000000000000000 K
   0.0000000000000000    0.0000000000000000    0.0000000000000000 Ce
