K3 Ce1
1.0
      4.9830282152       0.0000000000      -5.0838104174
     -0.8309647870       4.9132542898      -5.0838104174
      0.0000000000       0.0000000000       7.1186865750
K Ce
3 1
direct
   0.7500000000000000    0.2500000000000000    0.5000000000000000 K
   0.2500000000000000    0.7500000000000000    0.5000000000000000 K
   0.5000000000000000    0.5000000000000000    0.0000000000000000 K
   0.0000000000000000    0.0000000000000000    0.0000000000000000 Ce
