K3 Ce1
1.0
      5.2598631160       0.0000000000      -5.3662443294
     -0.8771294974       5.1862128614      -5.3662443294
      0.0000000000       0.0000000000       7.5141691625
K Ce
3 1
direct
   0.7500000000000000    0.2500000000000000    0.5000000000000000 K
   0.2500000000000000    0.7500000000000000    0.5000000000000000 K
   0.5000000000000000    0.5000000000000000    0.0000000000000000 K
   0.0000000000000000    0.0000000000000000    0.0000000000000000 Ce
