Mg2 P8
1.0
      4.3376060405       0.0000000000       0.0000000000
     -0.0000000000       4.3433591858      -0.6671930812
      0.0000000000       0.0000000000       6.4141849150
Mg P
2 8
direct
   0.0000000000000000    0.0000000000000000    0.0000000000000000 Mg
   0.5000000000000000    0.0000000000000000    0.5000000000000000 Mg
   0.2937822200000000    0.7454462300000000    0.7462437700000000 P
   0.7937822200000000    0.2545537700000000    0.7537562300000000 P
   0.7062177800000000    0.2545537700000000    0.2537562300000000 P
   0.2062177800000000    0.7454462300000000    0.2462437700000000 P
   0.8922087900000000    0.6022276000000000    0.4002462200000000 P
   0.3922087900000000    0.3977724000000000    0.0997537800000000 P
   0.1077912100000000    0.3977724000000000    0.5997537800000000 P
   0.6077912100000000    0.6022276000000000    0.9002462200000000 P
