Li2 S1
1.0
      2.7778864008       0.0000000000       1.6038136002
      0.9259616005       2.6190152018       1.6038136013
      0.0000000000       0.0000000000       3.2076264000
Li S
2 1
direct
   0.2500000000000000    0.2500000000000000    0.2500000000000000 Li
   0.7500000000000000    0.7500000000000000    0.7500000000000000 Li
   0.0000000000000000    0.0000000000000000    0.0000000000000000 S
