Li2 S1
1.0
      3.2987401009       0.0000000000       1.9045286503
      1.0995794006       3.1100805522       1.9045286516
      0.0000000000       0.0000000000       3.8090563500
Li S
2 1
direct
   0.2500000000000000    0.2500000000000000    0.2500000000000000 Li
   0.7500000000000000    0.7500000000000000    0.7500000000000000 Li
   0.0000000000000000    0.0000000000000000    0.0000000000000000 S
