Li2 S1
1.0
      2.9515043008       0.0000000000       1.7040519503
      0.9838342005       2.7827036519       1.7040519514
      0.0000000000       0.0000000000       3.4081030500
Li S
2 1
direct
   0.2500000000000000    0.2500000000000000    0.2500000000000000 Li
   0.7500000000000000    0.7500000000000000    0.7500000000000000 Li
   0.0000000000000000    0.0000000000000000    0.0000000000000000 S
