Li1 Pd1
1.0
      2.5157265465       0.0000000000       0.0000000000
     -0.0000000000       2.5157265465       0.0000000000
      0.0000000000       0.0000000000       2.5157265465
Li Pd
1 1
direct
   0.0000000000000000    0.0000000000000000    0.0000000000000000 Li
   0.5000000000000000    0.5000000000000000    0.5000000000000000 Pd
