Li2 Ag6
1.0
      4.8797528790       0.0000000000       0.0000000000
     -2.4398768806       4.2259897028       0.0000000000
      0.0000000000       0.0000000000       3.9596159960
Li Ag
2 6
direct
   0.6666666666666666    0.3333333333333333    0.2500000000000000 Li
   0.3333333333333333    0.6666666666666666    0.7500000000000000 Li
   0.8319267000000000    0.1680733000000000    0.7500000000000000 Ag
   0.3361465900000000    0.1680733000000000    0.7500000000000000 Ag
   0.8319267000000000    0.6638534100000000    0.7500000000000000 Ag
   0.1680733000000000    0.8319267000000000    0.2500000000000000 Ag
   0.6638534100000000    0.8319267000000000    0.2500000000000000 Ag
   0.1680733000000000    0.3361465900000000    0.2500000000000000 Ag
