Li3 Mg1
1.0
      3.9895254024       0.0000000000       2.3033535650
      1.3298418008       3.7613606210       2.3033535650
      0.0000000000       0.0000000000       4.6067071300
Li Mg
3 1
direct
   0.0000000000000000    0.0000000000000000    0.0000000000000000 Li
   0.2499990000000000    0.2499990000000000    0.2499990000000000 Li
   0.5000000000000000    0.5000000000000000    0.5000000000000000 Li
   0.7499990000000000    0.7499990000000000    0.7499990000000000 Mg
