Li3 Mg1
1.0
      3.5695753600       0.0000000000       2.0608952950
      1.1898584533       3.3654279240       2.0608952950
      0.0000000000       0.0000000000       4.1217905900
Li Mg
3 1
direct
   0.0000000000000000    0.0000000000000000    0.0000000000000000 Li
   0.2499990000000000    0.2499990000000000    0.2499990000000000 Li
   0.5000000000000000    0.5000000000000000    0.5000000000000000 Li
   0.7499990000000000    0.7499990000000000    0.7499990000000000 Mg
