Li3 Mg1
1.0
      3.7795503812       0.0000000000       2.1821244300
      1.2598501271       3.5633942725       2.1821244300
      0.0000000000       0.0000000000       4.3642488600
Li Mg
3 1
direct
   0.0000000000000000    0.0000000000000000    0.0000000000000000 Li
   0.2499990000000000    0.2499990000000000    0.2499990000000000 Li
   0.5000000000000000    0.5000000000000000    0.5000000000000000 Li
   0.7499990000000000    0.7499990000000000    0.7499990000000000 Mg
