Li3 Mg1
1.0
      3.1496253177       0.0000000000       1.8184370250
      1.0498751059       2.9694952271       1.8184370250
      0.0000000000       0.0000000000       3.6368740500
Li Mg
3 1
direct
   0.0000000000000000    0.0000000000000000    0.0000000000000000 Li
   0.2499990000000000    0.2499990000000000    0.2499990000000000 Li
   0.5000000000000000    0.5000000000000000    0.5000000000000000 Li
   0.7499990000000000    0.7499990000000000    0.7499990000000000 Mg
