Li3 Mg1
1.0
      3.3596003388       0.0000000000       1.9396661600
      1.1198667796       3.1674615756       1.9396661600
      0.0000000000       0.0000000000       3.8793323200
Li Mg
3 1
direct
   0.0000000000000000    0.0000000000000000    0.0000000000000000 Li
   0.2499990000000000    0.2499990000000000    0.2499990000000000 Li
   0.5000000000000000    0.5000000000000000    0.5000000000000000 Li
   0.7499990000000000    0.7499990000000000    0.7499990000000000 Mg
