Cu1 Cl1
1.0
      3.1220808923       0.0000000000       1.7436404118
     -2.0987399682       2.9496029206       0.0000000000
      0.0000000000       0.0000000000       3.5759853165
Cu Cl
1 1
direct
   0.0226130600000000    0.0113070300000000    0.0113070300000000 Cu
   0.5113869400000000    0.7556929700000000    0.7556929700000000 Cl
