Cu1 Cl1
1.0
      2.6291207514       0.0000000000       1.4683287679
     -1.7673599732       2.4838761436       0.0000000000
      0.0000000000       0.0000000000       3.0113560560
Cu Cl
1 1
direct
   0.0226130600000000    0.0113070300000000    0.0113070300000000 Cu
   0.5113869400000000    0.7556929700000000    0.7556929700000000 Cl
