Cu1 Cl1
1.0
      2.9577608453       0.0000000000       1.6518698638
     -1.9882799698       2.7943606616       0.0000000000
      0.0000000000       0.0000000000       3.3877755630
Cu Cl
1 1
direct
   0.0226130600000000    0.0113070300000000    0.0113070300000000 Cu
   0.5113869400000000    0.7556929700000000    0.7556929700000000 Cl
