Cu1 Cl1
1.0
      2.4648007044       0.0000000000       1.3765582199
     -1.6568999749       2.3286338847       0.0000000000
      0.0000000000       0.0000000000       2.8231463025
Cu Cl
1 1
direct
   0.0226130600000000    0.0113070300000000    0.0113070300000000 Cu
   0.5113869400000000    0.7556929700000000    0.7556929700000000 Cl
