Cu1 Cl1
1.0
      2.7934407984       0.0000000000       1.5600993159
     -1.8778199715       2.6391184026       0.0000000000
      0.0000000000       0.0000000000       3.1995658095
Cu Cl
1 1
direct
   0.0226130600000000    0.0113070300000000    0.0113070300000000 Cu
   0.5113869400000000    0.7556929700000000    0.7556929700000000 Cl
