Li4 Si2
1.0
      3.0766471300       0.0000000000       3.9016449424
      1.3532625828       2.7630486685       3.9016449424
      0.0000000000       0.0000000000       4.9687619250
Li Si
4 2
direct
   0.6409986600000001    0.6409986600000001    0.6409986600000001 Li
   0.3590013400000000    0.3590013400000000    0.3590013400000000 Li
   0.2050475500000000    0.2050475500000000    0.2050475500000000 Li
   0.7949524500000000    0.7949524500000000    0.7949524500000000 Li
   0.9385333600000000    0.9385333600000000    0.9385333600000000 Si
   0.0614666400000000    0.0614666400000000    0.0614666400000000 Si
