K1 S1
1.0
      3.5884489504       0.0000000000       2.0717919675
      1.1961496501       3.3832221157       2.0717919675
      0.0000000000       0.0000000000       4.1435839350
K S
1 1
direct
   0.0000000000000000    0.0000000000000000    0.0000000000000000 K
   0.5000000000000000    0.5000000000000000    0.5000000000000000 S
