K1 S1
1.0
      3.3890906754       0.0000000000       1.9566924138
      1.1296968918       3.1952653315       1.9566924138
      0.0000000000       0.0000000000       3.9133848275
K S
1 1
direct
   0.0000000000000000    0.0000000000000000    0.0000000000000000 K
   0.5000000000000000    0.5000000000000000    0.5000000000000000 S
