K1 S1
1.0
      3.7878072254       0.0000000000       2.1868915213
      1.2626024085       3.5711788999       2.1868915213
      0.0000000000       0.0000000000       4.3737830425
K S
1 1
direct
   0.0000000000000000    0.0000000000000000    0.0000000000000000 K
   0.5000000000000000    0.5000000000000000    0.5000000000000000 S
