K1 S1
1.0
      3.1897324004       0.0000000000       1.8415928600
      1.0632441335       3.0073085473       1.8415928600
      0.0000000000       0.0000000000       3.6831857200
K S
1 1
direct
   0.0000000000000000    0.0000000000000000    0.0000000000000000 K
   0.5000000000000000    0.5000000000000000    0.5000000000000000 S
