K1 S1
1.0
      2.9903741254       0.0000000000       1.7264933063
      0.9967913751       2.8193517631       1.7264933063
      0.0000000000       0.0000000000       3.4529866125
K S
1 1
direct
   0.0000000000000000    0.0000000000000000    0.0000000000000000 K
   0.5000000000000000    0.5000000000000000    0.5000000000000000 S
