Li3 In1
1.0
      3.4286103790       0.0000000000       1.9795091253
      1.1428701263       3.2325248654       1.9795091253
      0.0000000000       0.0000000000       3.9590182505
Li In
3 1
direct
   0.0000000000000000    0.0000000000000000    0.0000000000000000 Li
   0.5000000000000000    0.5000000000000000    0.5000000000000000 Li
   0.2500000000000000    0.2500000000000000    0.2500000000000000 Li
   0.7500010000000000    0.7500010000000000    0.7500010000000000 In
