Li3 In1
1.0
      3.6302933424       0.0000000000       2.0959508385
      1.2100977808       3.4226733869       2.0959508385
      0.0000000000       0.0000000000       4.1919016770
Li In
3 1
direct
   0.0000000000000000    0.0000000000000000    0.0000000000000000 Li
   0.5000000000000000    0.5000000000000000    0.5000000000000000 Li
   0.2500000000000000    0.2500000000000000    0.2500000000000000 Li
   0.7500010000000000    0.7500010000000000    0.7500010000000000 In
