Li1 Mg5
1.0
      4.1047454625       0.0000000000       0.0000000000
     -2.0523725129       3.5548139727       0.0000000000
      0.0000000000       0.0000000000       3.8024670450
Li Mg
1 5
direct
   0.0000000000000000    0.0000000000000000    0.5000000000000000 Li
   0.0000000000000000    0.6714212500000000    0.0000000000000000 Mg
   0.6714212500000000    0.0000000000000000    0.0000000000000000 Mg
   0.3285787500000000    0.3285787500000000    0.0000000000000000 Mg
   0.6666666666666666    0.3333333333333333    0.5000000000000000 Mg
   0.3333333333333333    0.6666666666666666    0.5000000000000000 Mg
