Li1 Mg5
1.0
      4.9256945550       0.0000000000       0.0000000000
     -2.4628470154       4.2657767672       0.0000000000
      0.0000000000       0.0000000000       4.5629604540
Li Mg
1 5
direct
   0.0000000000000000    0.0000000000000000    0.5000000000000000 Li
   0.0000000000000000    0.6714212500000000    0.0000000000000000 Mg
   0.6714212500000000    0.0000000000000000    0.0000000000000000 Mg
   0.3285787500000000    0.3285787500000000    0.0000000000000000 Mg
   0.6666666666666666    0.3333333333333333    0.5000000000000000 Mg
   0.3333333333333333    0.6666666666666666    0.5000000000000000 Mg
