Eu2 Zn4
1.0
      4.0376701693       0.0000000000       1.7661521918
      2.0234702477       5.0375475736       0.8724764677
      0.0000000000       0.0000000000       5.4984156525
Eu Zn
2 4
direct
   0.5520891700000000    0.6979108300000000    0.1979108300000000 Eu
   0.4479108300000000    0.3020891700000000    0.8020891700000000 Eu
   0.8364358600000000    0.7287795100000000    0.5983507800000000 Zn
   0.1635641400000000    0.2712204900000000    0.4016492200000000 Zn
   0.8364358600000000    0.0983507800000000    0.2287795100000000 Zn
   0.1635641400000000    0.9016492200000000    0.7712204900000000 Zn
