Pr2 Zn22
1.0
      4.9244978258       0.0000000000       2.2393395101
      2.4622481047       5.9482387212       1.1196693551
      0.0000000000       0.0000000000       6.5343600720
Pr Zn
2 22
direct
   0.3750000000000000    0.2500000000000000    0.7500000000000000 Pr
   0.6250000000000000    0.7500000000000000    0.2500000000000000 Pr
   0.7229041700000000    0.8331951399999999    0.5778499600000000 Zn
   0.0000000000000000    0.0000000000000000    0.0000000000000000 Zn
   0.1992438700000000    0.0778499600000000    0.1668048600000000 Zn
   0.1339502600000000    0.4221500400000000    0.1668048600000000 Zn
   0.1992438700000000    0.6668048600000001    0.5778499600000000 Zn
   0.8660497400000000    0.5778499600000000    0.8331951399999999 Zn
   0.1339502600000000    0.6668048600000001    0.9221500400000000 Zn
   0.1250000000000000    0.7500000000000000    0.2500000000000000 Zn
   0.8660497400000000    0.3331951400000000    0.0778499600000000 Zn
   0.8750000000000000    0.2500000000000000    0.7500000000000000 Zn
   0.5560993000000000    0.5778499600000000    0.6668048600000001 Zn
   0.5000000000000000    0.5000000000000000    0.0000000000000000 Zn
   0.2770958300000000    0.1668048600000000    0.4221500400000000 Zn
   0.8007561300000000    0.3331951400000000    0.4221500400000000 Zn
   0.7229041700000000    0.0778499600000000    0.3331951400000000 Zn
   0.4439007000000000    0.4221500400000000    0.3331951400000000 Zn
   0.5560993000000000    0.1668048600000000    0.0778499600000000 Zn
   0.2770958300000000    0.9221500400000000    0.6668048600000001 Zn
   0.8007561300000000    0.9221500400000000    0.8331951399999999 Zn
   0.4439007000000000    0.8331951399999999    0.9221500400000000 Zn
   0.0000000000000000    0.0000000000000000    0.5000000000000000 Zn
   0.0000000000000000    0.5000000000000000    0.5000000000000000 Zn
