Mn3 Al1
1.0
      3.1503196224       0.0000000000       1.8188378820
      1.0501065408       2.9701498238       1.8188378820
      0.0000000000       0.0000000000       3.6376757640
Mn Al
3 1
direct
   0.7500000000000000    0.7500000000000000    0.7500000000000000 Mn
   0.2500000000000000    0.2500000000000000    0.2500000000000000 Mn
   0.0000000000000000    0.0000000000000000    0.0000000000000000 Mn
   0.5000000000000000    0.5000000000000000    0.5000000000000000 Al
