Mn3 Al1
1.0
      3.3253373792       0.0000000000       1.9198844310
      1.1084457931       3.1351581474       1.9198844310
      0.0000000000       0.0000000000       3.8397688620
Mn Al
3 1
direct
   0.7500000000000000    0.7500000000000000    0.7500000000000000 Mn
   0.2500000000000000    0.2500000000000000    0.2500000000000000 Mn
   0.0000000000000000    0.0000000000000000    0.0000000000000000 Mn
   0.5000000000000000    0.5000000000000000    0.5000000000000000 Al
