Mn3 Al1
1.0
      2.8002841088       0.0000000000       1.6167447840
      0.9334280363       2.6401331767       1.6167447840
      0.0000000000       0.0000000000       3.2334895680
Mn Al
3 1
direct
   0.7500000000000000    0.7500000000000000    0.7500000000000000 Mn
   0.2500000000000000    0.2500000000000000    0.2500000000000000 Mn
   0.0000000000000000    0.0000000000000000    0.0000000000000000 Mn
   0.5000000000000000    0.5000000000000000    0.5000000000000000 Al
