Mn3 Al1
1.0
      2.9753018656       0.0000000000       1.7177913330
      0.9917672885       2.8051415003       1.7177913330
      0.0000000000       0.0000000000       3.4355826660
Mn Al
3 1
direct
   0.7500000000000000    0.7500000000000000    0.7500000000000000 Mn
   0.2500000000000000    0.2500000000000000    0.2500000000000000 Mn
   0.0000000000000000    0.0000000000000000    0.0000000000000000 Mn
   0.5000000000000000    0.5000000000000000    0.5000000000000000 Al
