Mn3 Al1
1.0
      2.6252663520       0.0000000000       1.5156982350
      0.8750887840       2.4751248532       1.5156982350
      0.0000000000       0.0000000000       3.0313964700
Mn Al
3 1
direct
   0.7500000000000000    0.7500000000000000    0.7500000000000000 Mn
   0.2500000000000000    0.2500000000000000    0.2500000000000000 Mn
   0.0000000000000000    0.0000000000000000    0.0000000000000000 Mn
   0.5000000000000000    0.5000000000000000    0.5000000000000000 Al
