Al2 Cu1
1.0
      3.6946638000       0.0000000000       0.0000000000
     -0.0000000000       3.6946638000       0.0000000000
      0.0000000000       0.0000000000       2.6021817000
Al Cu
2 1
direct
   0.5000000000000000    0.0000000000000000    0.5000000000000000 Al
   0.0000000000000000    0.5000000000000000    0.5000000000000000 Al
   0.0000000000000000    0.0000000000000000    0.0000000000000000 Cu
