Al2 Cu1
1.0
      3.4894047000       0.0000000000       0.0000000000
     -0.0000000000       3.4894047000       0.0000000000
      0.0000000000       0.0000000000       2.4576160500
Al Cu
2 1
direct
   0.5000000000000000    0.0000000000000000    0.5000000000000000 Al
   0.0000000000000000    0.5000000000000000    0.5000000000000000 Al
   0.0000000000000000    0.0000000000000000    0.0000000000000000 Cu
