Al2 Cu1
1.0
      3.0788865000       0.0000000000       0.0000000000
     -0.0000000000       3.0788865000       0.0000000000
      0.0000000000       0.0000000000       2.1684847500
Al Cu
2 1
direct
   0.5000000000000000    0.0000000000000000    0.5000000000000000 Al
   0.0000000000000000    0.5000000000000000    0.5000000000000000 Al
   0.0000000000000000    0.0000000000000000    0.0000000000000000 Cu
