Li3 Cu1
1.0
      3.0879146293       0.0000000000      -2.3882585300
     -0.7437414693       2.9970094068      -2.3882585300
      0.0000000000       0.0000000000       3.9037156100
Li Cu
3 1
direct
   0.7499980000000001    0.2500000000000000    0.4999980000000000 Li
   0.2500000000000000    0.7499980000000001    0.4999980000000000 Li
   0.5000000000000000    0.5000000000000000    0.0000000000000000 Li
   0.0000000000000000    0.0000000000000000    0.0000000000000000 Cu
