Li3 Cu1
1.0
      3.2695566663       0.0000000000      -2.5287443258
     -0.7874909675       3.1733040778      -2.5287443258
      0.0000000000       0.0000000000       4.1333459400
Li Cu
3 1
direct
   0.7499980000000001    0.2500000000000000    0.4999980000000000 Li
   0.2500000000000000    0.7499980000000001    0.4999980000000000 Li
   0.5000000000000000    0.5000000000000000    0.0000000000000000 Li
   0.0000000000000000    0.0000000000000000    0.0000000000000000 Cu
