Nb1 Zn3
1.0
      2.9324876025       0.0000000000       0.0000000000
     -0.0000000000       2.9324876025       0.0000000000
      0.0000000000       0.0000000000       2.9324876025
Nb Zn
1 3
direct
   0.0000000000000000    0.0000000000000000    0.0000000000000000 Nb
   0.5000000000000000    0.0000000000000000    0.5000000000000000 Zn
   0.0000000000000000    0.5000000000000000    0.5000000000000000 Zn
   0.5000000000000000    0.5000000000000000    0.0000000000000000 Zn
