Li5 Mg1
1.0
      4.5478790820       0.0000000000       0.0000000000
     -0.0000000000       4.1107731049       2.3733551800
      0.0000000000       0.0000000000       4.7467130580
Li Mg
5 1
direct
   0.0000000000000000    0.9989168100000000    0.0010831900000000 Li
   0.5000000000000000    0.3333333333333333    0.9999990000000000 Li
   0.0000000000000000    0.3344181900000000    0.3333333333333333 Li
   0.5000000000000000    0.0000000000000000    0.6666666666666666 Li
   0.0000000000000000    0.6666666666666666    0.6655828100000000 Li
   0.5000000000000000    0.6666666666666666    0.3333333333333333 Mg
