Mn3 Te1
1.0
      3.1097335982       0.0000000000       1.7954055300
      1.0365778661       2.9318849532       1.7954055300
      0.0000000000       0.0000000000       3.5908110600
Mn Te
3 1
direct
   0.2500000000000000    0.2500000000000000    0.2500000000000000 Mn
   0.7500000000000000    0.7500000000000000    0.7500000000000000 Mn
   0.5000000000000000    0.5000000000000000    0.5000000000000000 Mn
   0.0000000000000000    0.0000000000000000    0.0000000000000000 Te
