Mn3 Te1
1.0
      2.7438825866       0.0000000000       1.5841813500
      0.9146275289       2.5869573117       1.5841813500
      0.0000000000       0.0000000000       3.1683627000
Mn Te
3 1
direct
   0.2500000000000000    0.2500000000000000    0.2500000000000000 Mn
   0.7500000000000000    0.7500000000000000    0.7500000000000000 Mn
   0.5000000000000000    0.5000000000000000    0.5000000000000000 Mn
   0.0000000000000000    0.0000000000000000    0.0000000000000000 Te
