Mn3 Te1
1.0
      3.4755846097       0.0000000000       2.0066297100
      1.1585282032       3.2768125948       2.0066297100
      0.0000000000       0.0000000000       4.0132594200
Mn Te
3 1
direct
   0.2500000000000000    0.2500000000000000    0.2500000000000000 Mn
   0.7500000000000000    0.7500000000000000    0.7500000000000000 Mn
   0.5000000000000000    0.5000000000000000    0.5000000000000000 Mn
   0.0000000000000000    0.0000000000000000    0.0000000000000000 Te
