Mn3 Te1
1.0
      2.9268080924       0.0000000000       1.6897934400
      0.9756026975       2.7594211325       1.6897934400
      0.0000000000       0.0000000000       3.3795868800
Mn Te
3 1
direct
   0.2500000000000000    0.2500000000000000    0.2500000000000000 Mn
   0.7500000000000000    0.7500000000000000    0.7500000000000000 Mn
   0.5000000000000000    0.5000000000000000    0.5000000000000000 Mn
   0.0000000000000000    0.0000000000000000    0.0000000000000000 Te
