Mn3 Te1
1.0
      3.2926591039       0.0000000000       1.9010176200
      1.0975530346       3.1043487740       1.9010176200
      0.0000000000       0.0000000000       3.8020352400
Mn Te
3 1
direct
   0.2500000000000000    0.2500000000000000    0.2500000000000000 Mn
   0.7500000000000000    0.7500000000000000    0.7500000000000000 Mn
   0.5000000000000000    0.5000000000000000    0.5000000000000000 Mn
   0.0000000000000000    0.0000000000000000    0.0000000000000000 Te
