Mn4 S6
1.0
      5.1550650579       0.0000000000       3.5126908073
      1.8570980214       4.8089377923       3.5126908073
      0.0000000000       0.0000000000       6.2380838475
Mn S
4 6
direct
   0.8447111500000000    0.8447111500000000    0.8447111500000000 Mn
   0.6552888500000000    0.6552888500000000    0.6552888500000000 Mn
   0.3447111500000000    0.3447111500000000    0.3447111500000000 Mn
   0.1552888500000000    0.1552888500000000    0.1552888500000000 Mn
   0.2500000000000000    0.5610757199999999    0.9389242800000001 S
   0.5610757199999999    0.9389242800000001    0.2500000000000000 S
   0.9389242800000001    0.2500000000000000    0.5610757199999999 S
   0.0610757200000000    0.7500000000000000    0.4389242800000000 S
   0.4389242800000000    0.0610757200000000    0.7500000000000000 S
   0.7500000000000000    0.4389242800000000    0.0610757200000000 S
