Cu2 Te2
1.0
      3.7019210500       0.0000000000       0.0000000000
     -0.0000000000       5.0181935500       0.0000000000
      0.0000000000       0.0000000000       3.8284344500
Cu Te
2 2
direct
   0.5000000000000000    0.0000000000000000    0.7231950000000000 Cu
   0.0000000000000000    0.5000000000000000    0.2768050000000000 Cu
   0.5000000000000000    0.5000000000000000    0.7711000000000000 Te
   0.0000000000000000    0.0000000000000000    0.2289000000000000 Te
