Cu2 Te2
1.0
      3.5070831000       0.0000000000       0.0000000000
     -0.0000000000       4.7540781000       0.0000000000
      0.0000000000       0.0000000000       3.6269379000
Cu Te
2 2
direct
   0.5000000000000000    0.0000000000000000    0.7231950000000000 Cu
   0.0000000000000000    0.5000000000000000    0.2768050000000000 Cu
   0.5000000000000000    0.5000000000000000    0.7711000000000000 Te
   0.0000000000000000    0.0000000000000000    0.2289000000000000 Te
