Cu2 Te2
1.0
      3.1174072000       0.0000000000       0.0000000000
     -0.0000000000       4.2258472000       0.0000000000
      0.0000000000       0.0000000000       3.2239448000
Cu Te
2 2
direct
   0.5000000000000000    0.0000000000000000    0.7231950000000000 Cu
   0.0000000000000000    0.5000000000000000    0.2768050000000000 Cu
   0.5000000000000000    0.5000000000000000    0.7711000000000000 Te
   0.0000000000000000    0.0000000000000000    0.2289000000000000 Te
