Cu1 S1
1.0
      2.6894328146       0.0000000000       1.5527447595
      0.8964776049       2.5356215744       1.5527447595
      0.0000000000       0.0000000000       3.1054895190
Cu S
1 1
direct
   0.0000000000000000    0.0000000000000000    0.0000000000000000 Cu
   0.5000000000000000    0.5000000000000000    0.5000000000000000 S
