Cu1 S1
1.0
      2.3906069463       0.0000000000       1.3802175640
      0.7968689821       2.2538858439       1.3802175640
      0.0000000000       0.0000000000       2.7604351280
Cu S
1 1
direct
   0.0000000000000000    0.0000000000000000    0.0000000000000000 Cu
   0.5000000000000000    0.5000000000000000    0.5000000000000000 S
