Cu1 S1
1.0
      2.8388457488       0.0000000000       1.6390083573
      0.9462819163       2.6764894396       1.6390083573
      0.0000000000       0.0000000000       3.2780167145
Cu S
1 1
direct
   0.0000000000000000    0.0000000000000000    0.0000000000000000 Cu
   0.5000000000000000    0.5000000000000000    0.5000000000000000 S
