Cu1 S1
1.0
      2.2411940122       0.0000000000       1.2939539663
      0.7470646707       2.1130179786       1.2939539663
      0.0000000000       0.0000000000       2.5879079325
Cu S
1 1
direct
   0.0000000000000000    0.0000000000000000    0.0000000000000000 Cu
   0.5000000000000000    0.5000000000000000    0.5000000000000000 S
