Cu1 S1
1.0
      2.5400198805       0.0000000000       1.4664811618
      0.8466732935       2.3947537091       1.4664811618
      0.0000000000       0.0000000000       2.9329623235
Cu S
1 1
direct
   0.0000000000000000    0.0000000000000000    0.0000000000000000 Cu
   0.5000000000000000    0.5000000000000000    0.5000000000000000 S
