Cu3 Sn1
1.0
      2.8319392941       0.0000000000       1.6350209138
      0.9439797647       2.6699779716       1.6350209138
      0.0000000000       0.0000000000       3.2700418275
Cu Sn
3 1
direct
   0.5000000000000000    0.5000000000000000    0.5000000000000000 Cu
   0.2500000000000000    0.2500000000000000    0.2500000000000000 Cu
   0.7500000000000000    0.7500000000000000    0.7500000000000000 Cu
   0.0000000000000000    0.0000000000000000    0.0000000000000000 Sn
