Cu3 Sn1
1.0
      3.3983271529       0.0000000000       1.9620250965
      1.1327757176       3.2039735660       1.9620250965
      0.0000000000       0.0000000000       3.9240501930
Cu Sn
3 1
direct
   0.5000000000000000    0.5000000000000000    0.5000000000000000 Cu
   0.2500000000000000    0.2500000000000000    0.2500000000000000 Cu
   0.7500000000000000    0.7500000000000000    0.7500000000000000 Cu
   0.0000000000000000    0.0000000000000000    0.0000000000000000 Sn
