Cu3 Sn1
1.0
      3.2095311999       0.0000000000       1.8530237023
      1.0698437333       3.0259750345       1.8530237023
      0.0000000000       0.0000000000       3.7060474045
Cu Sn
3 1
direct
   0.5000000000000000    0.5000000000000000    0.5000000000000000 Cu
   0.2500000000000000    0.2500000000000000    0.2500000000000000 Cu
   0.7500000000000000    0.7500000000000000    0.7500000000000000 Cu
   0.0000000000000000    0.0000000000000000    0.0000000000000000 Sn
