Cu3 Sn1
1.0
      3.5871231058       0.0000000000       2.0710264908
      1.1957077019       3.3819720974       2.0710264908
      0.0000000000       0.0000000000       4.1420529815
Cu Sn
3 1
direct
   0.5000000000000000    0.5000000000000000    0.5000000000000000 Cu
   0.2500000000000000    0.2500000000000000    0.2500000000000000 Cu
   0.7500000000000000    0.7500000000000000    0.7500000000000000 Cu
   0.0000000000000000    0.0000000000000000    0.0000000000000000 Sn
