Cu3 Sn1
1.0
      3.0207352470       0.0000000000       1.7440223080
      1.0069117490       2.8479765031       1.7440223080
      0.0000000000       0.0000000000       3.4880446160
Cu Sn
3 1
direct
   0.5000000000000000    0.5000000000000000    0.5000000000000000 Cu
   0.2500000000000000    0.2500000000000000    0.2500000000000000 Cu
   0.7500000000000000    0.7500000000000000    0.7500000000000000 Cu
   0.0000000000000000    0.0000000000000000    0.0000000000000000 Sn
