Ce1 Cu5
1.0
      4.8094996020       0.0000000000       0.0000000000
     -2.4047541425       4.1651447925       0.0000000000
      0.0000000000       0.0000000000       3.8651871000
Ce Cu
1 5
direct
   0.0000000000000000    0.0000000000000000    0.0000000000000000 Ce
   0.0000000000000000    0.5000000000000000    0.5000000000000000 Cu
   0.3333333333333333    0.6666666666666666    0.0000000000000000 Cu
   0.6666666666666666    0.3333333333333333    0.0000000000000000 Cu
   0.5000000000000000    0.0000000000000000    0.5000000000000000 Cu
   0.5000000000000000    0.5000000000000000    0.5000000000000000 Cu
