Ce1 Cu5
1.0
      3.7969733700       0.0000000000       0.0000000000
     -1.8984901125       3.2882722046       0.0000000000
      0.0000000000       0.0000000000       3.0514635000
Ce Cu
1 5
direct
   0.0000000000000000    0.0000000000000000    0.0000000000000000 Ce
   0.0000000000000000    0.5000000000000000    0.5000000000000000 Cu
   0.3333333333333333    0.6666666666666666    0.0000000000000000 Cu
   0.6666666666666666    0.3333333333333333    0.0000000000000000 Cu
   0.5000000000000000    0.0000000000000000    0.5000000000000000 Cu
   0.5000000000000000    0.5000000000000000    0.5000000000000000 Cu
