Ce1 Cu5
1.0
      4.0501049280       0.0000000000       0.0000000000
     -2.0250561200       3.5074903516       0.0000000000
      0.0000000000       0.0000000000       3.2548944000
Ce Cu
1 5
direct
   0.0000000000000000    0.0000000000000000    0.0000000000000000 Ce
   0.0000000000000000    0.5000000000000000    0.5000000000000000 Cu
   0.3333333333333333    0.6666666666666666    0.0000000000000000 Cu
   0.6666666666666666    0.3333333333333333    0.0000000000000000 Cu
   0.5000000000000000    0.0000000000000000    0.5000000000000000 Cu
   0.5000000000000000    0.5000000000000000    0.5000000000000000 Cu
