Ce1 Cu5
1.0
      4.3032364860       0.0000000000       0.0000000000
     -2.1516221275       3.7267084985       0.0000000000
      0.0000000000       0.0000000000       3.4583253000
Ce Cu
1 5
direct
   0.0000000000000000    0.0000000000000000    0.0000000000000000 Ce
   0.0000000000000000    0.5000000000000000    0.5000000000000000 Cu
   0.3333333333333333    0.6666666666666666    0.0000000000000000 Cu
   0.6666666666666666    0.3333333333333333    0.0000000000000000 Cu
   0.5000000000000000    0.0000000000000000    0.5000000000000000 Cu
   0.5000000000000000    0.5000000000000000    0.5000000000000000 Cu
