Ce1 Cu5
1.0
      4.5563680440       0.0000000000       0.0000000000
     -2.2781881350       3.9459266455       0.0000000000
      0.0000000000       0.0000000000       3.6617562000
Ce Cu
1 5
direct
   0.0000000000000000    0.0000000000000000    0.0000000000000000 Ce
   0.0000000000000000    0.5000000000000000    0.5000000000000000 Cu
   0.3333333333333333    0.6666666666666666    0.0000000000000000 Cu
   0.6666666666666666    0.3333333333333333    0.0000000000000000 Cu
   0.5000000000000000    0.0000000000000000    0.5000000000000000 Cu
   0.5000000000000000    0.5000000000000000    0.5000000000000000 Cu
