K1 Ba3
1.0
      5.6548300446       0.0000000000       3.2648176485
      1.8849433482       5.3314248947       3.2648176485
      0.0000000000       0.0000000000       6.5296352970
K Ba
1 3
direct
   0.0000000000000000    0.0000000000000000    0.0000000000000000 K
   0.2500000000000000    0.2500000000000000    0.2500000000000000 Ba
   0.7500000000000000    0.7500000000000000    0.7500000000000000 Ba
   0.5000000000000000    0.5000000000000000    0.5000000000000000 Ba
