K1 Ba3
1.0
      5.9689872694       0.0000000000       3.4461964068
      1.9896624231       5.6276151666       3.4461964068
      0.0000000000       0.0000000000       6.8923928135
K Ba
1 3
direct
   0.0000000000000000    0.0000000000000000    0.0000000000000000 K
   0.2500000000000000    0.2500000000000000    0.2500000000000000 Ba
   0.7500000000000000    0.7500000000000000    0.7500000000000000 Ba
   0.5000000000000000    0.5000000000000000    0.5000000000000000 Ba
