K1 Ba3
1.0
      5.0265155952       0.0000000000       2.9020601320
      1.6755051984       4.7390443508       2.9020601320
      0.0000000000       0.0000000000       5.8041202640
K Ba
1 3
direct
   0.0000000000000000    0.0000000000000000    0.0000000000000000 K
   0.2500000000000000    0.2500000000000000    0.2500000000000000 Ba
   0.7500000000000000    0.7500000000000000    0.7500000000000000 Ba
   0.5000000000000000    0.5000000000000000    0.5000000000000000 Ba
