K1 Ba3
1.0
      5.3406728199       0.0000000000       3.0834388903
      1.7802242733       5.0352346228       3.0834388903
      0.0000000000       0.0000000000       6.1668777805
K Ba
1 3
direct
   0.0000000000000000    0.0000000000000000    0.0000000000000000 K
   0.2500000000000000    0.2500000000000000    0.2500000000000000 Ba
   0.7500000000000000    0.7500000000000000    0.7500000000000000 Ba
   0.5000000000000000    0.5000000000000000    0.5000000000000000 Ba
