K1 Ba3
1.0
      4.7123583705       0.0000000000       2.7206813738
      1.5707861235       4.4428540789       2.7206813738
      0.0000000000       0.0000000000       5.4413627475
K Ba
1 3
direct
   0.0000000000000000    0.0000000000000000    0.0000000000000000 K
   0.2500000000000000    0.2500000000000000    0.2500000000000000 Ba
   0.7500000000000000    0.7500000000000000    0.7500000000000000 Ba
   0.5000000000000000    0.5000000000000000    0.5000000000000000 Ba
