Mn2 F8
1.0
      3.8146979290       0.0000000000      -1.9585884091
     -0.0000013980       3.6819329760       0.0000003528
      0.0000000000       0.0000000000       4.1982694080
Mn F
2 8
direct
   0.0000000000000000    0.5000000000000000    0.5000000000000000 Mn
   0.0000000000000000    0.0000000000000000    0.0000000000000000 Mn
   0.1380368400000000    0.2741643700000000    0.8326589599999999 F
   0.1380368400000000    0.2258356300000000    0.3326589600000000 F
   0.3196639000000000    0.6810516500000000    0.6359714700000000 F
   0.3196639000000000    0.8189483500000000    0.1359714700000000 F
   0.6803361000000000    0.1810516500000000    0.8640285300000000 F
   0.6803361000000000    0.3189483500000000    0.3640285300000000 F
   0.8619631600000000    0.7741643700000000    0.6673410400000001 F
   0.8619631600000000    0.7258356300000000    0.1673410400000000 F
