K3 Eu1
1.0
      4.9890864138       0.0000000000       2.8804503840
      1.6630288046       4.7037557801       2.8804503840
      0.0000000000       0.0000000000       5.7609007680
K Eu
3 1
direct
   0.2500000000000000    0.2500000000000000    0.2500000000000000 K
   0.7500000000000000    0.7500000000000000    0.7500000000000000 K
   0.5000000000000000    0.5000000000000000    0.5000000000000000 K
   0.0000000000000000    0.0000000000000000    0.0000000000000000 Eu
