K3 Eu1
1.0
      5.3009043146       0.0000000000       3.0604785330
      1.7669681049       4.9977405164       3.0604785330
      0.0000000000       0.0000000000       6.1209570660
K Eu
3 1
direct
   0.2500000000000000    0.2500000000000000    0.2500000000000000 K
   0.7500000000000000    0.7500000000000000    0.7500000000000000 K
   0.5000000000000000    0.5000000000000000    0.5000000000000000 K
   0.0000000000000000    0.0000000000000000    0.0000000000000000 Eu
