K3 Eu1
1.0
      5.6127222155       0.0000000000       3.2405066820
      1.8709074052       5.2917252527       3.2405066820
      0.0000000000       0.0000000000       6.4810133640
K Eu
3 1
direct
   0.2500000000000000    0.2500000000000000    0.2500000000000000 K
   0.7500000000000000    0.7500000000000000    0.7500000000000000 K
   0.5000000000000000    0.5000000000000000    0.5000000000000000 K
   0.0000000000000000    0.0000000000000000    0.0000000000000000 Eu
