K3 Eu1
1.0
      4.6772685129       0.0000000000       2.7004222350
      1.5590895043       4.4097710439       2.7004222350
      0.0000000000       0.0000000000       5.4008444700
K Eu
3 1
direct
   0.2500000000000000    0.2500000000000000    0.2500000000000000 K
   0.7500000000000000    0.7500000000000000    0.7500000000000000 K
   0.5000000000000000    0.5000000000000000    0.5000000000000000 K
   0.0000000000000000    0.0000000000000000    0.0000000000000000 Eu
