K3 Eu1
1.0
      5.9245401164       0.0000000000       3.4205348310
      1.9748467055       5.5857099889       3.4205348310
      0.0000000000       0.0000000000       6.8410696620
K Eu
3 1
direct
   0.2500000000000000    0.2500000000000000    0.2500000000000000 K
   0.7500000000000000    0.7500000000000000    0.7500000000000000 K
   0.5000000000000000    0.5000000000000000    0.5000000000000000 K
   0.0000000000000000    0.0000000000000000    0.0000000000000000 Eu
