Cu6 Rh2
1.0
      4.1430701520       0.0000000000       0.0000000000
     -2.0715373411       3.5880026936       0.0000000000
      0.0000000000       0.0000000000       3.3480616400
Cu Rh
6 2
direct
   0.1639174500000000    0.3278338900000000    0.2500000000000000 Cu
   0.6721661100000000    0.8360825500000000    0.2500000000000000 Cu
   0.1639174500000000    0.8360825500000000    0.2500000000000000 Cu
   0.8360825500000000    0.6721661100000000    0.7500000000000000 Cu
   0.3278338900000000    0.1639174500000000    0.7500000000000000 Cu
   0.8360825500000000    0.1639174500000000    0.7500000000000000 Cu
   0.3333333333333333    0.6666666666666666    0.7500000000000000 Rh
   0.6666666666666666    0.3333333333333333    0.2500000000000000 Rh
