Cu6 Rh2
1.0
      4.9198958055       0.0000000000       0.0000000000
     -2.4599505925       4.2607531986       0.0000000000
      0.0000000000       0.0000000000       3.9758231975
Cu Rh
6 2
direct
   0.1639174500000000    0.3278338900000000    0.2500000000000000 Cu
   0.6721661100000000    0.8360825500000000    0.2500000000000000 Cu
   0.1639174500000000    0.8360825500000000    0.2500000000000000 Cu
   0.8360825500000000    0.6721661100000000    0.7500000000000000 Cu
   0.3278338900000000    0.1639174500000000    0.7500000000000000 Cu
   0.8360825500000000    0.1639174500000000    0.7500000000000000 Cu
   0.3333333333333333    0.6666666666666666    0.7500000000000000 Rh
   0.6666666666666666    0.3333333333333333    0.2500000000000000 Rh
