Mn3 Si1
1.0
      2.0934007500       0.0000000000       0.0000000000
     -0.0000000000       2.0934007500       0.0000000000
      0.0000000000       0.0000000000       4.2632505000
Mn Si
3 1
direct
   0.0000000000000000    0.0000000000000000    0.7465510000000000 Mn
   0.0000000000000000    0.0000000000000000    0.2534490000000000 Mn
   0.5000000000000000    0.5000000000000000    0.0000000000000000 Mn
   0.5000000000000000    0.5000000000000000    0.5000000000000000 Si
