K3 Rb1
1.0
      6.0096934645       0.0000000000       3.4696981395
      2.0032311548       5.6659933355       3.4696981395
      0.0000000000       0.0000000000       6.9393962790
K Rb
3 1
direct
   0.2500000000000000    0.2500000000000000    0.2500000000000000 K
   0.7500000000000000    0.7500000000000000    0.7500000000000000 K
   0.5000000000000000    0.5000000000000000    0.5000000000000000 K
   0.0000000000000000    0.0000000000000000    0.0000000000000000 Rb
