K3 Rb1
1.0
      6.3435653237       0.0000000000       3.6624591473
      2.1145217746       5.9807707430       3.6624591473
      0.0000000000       0.0000000000       7.3249182945
K Rb
3 1
direct
   0.2500000000000000    0.2500000000000000    0.2500000000000000 K
   0.7500000000000000    0.7500000000000000    0.7500000000000000 K
   0.5000000000000000    0.5000000000000000    0.5000000000000000 K
   0.0000000000000000    0.0000000000000000    0.0000000000000000 Rb
