K3 Rb1
1.0
      5.0080778871       0.0000000000       2.8914151163
      1.6693592957       4.7216611129       2.8914151163
      0.0000000000       0.0000000000       5.7828302325
K Rb
3 1
direct
   0.2500000000000000    0.2500000000000000    0.2500000000000000 K
   0.7500000000000000    0.7500000000000000    0.7500000000000000 K
   0.5000000000000000    0.5000000000000000    0.5000000000000000 K
   0.0000000000000000    0.0000000000000000    0.0000000000000000 Rb
