K3 Rb1
1.0
      5.6758216054       0.0000000000       3.2769371318
      1.8919405351       5.3512159280       3.2769371318
      0.0000000000       0.0000000000       6.5538742635
K Rb
3 1
direct
   0.2500000000000000    0.2500000000000000    0.2500000000000000 K
   0.7500000000000000    0.7500000000000000    0.7500000000000000 K
   0.5000000000000000    0.5000000000000000    0.5000000000000000 K
   0.0000000000000000    0.0000000000000000    0.0000000000000000 Rb
