K3 Rb1
1.0
      5.3419497463       0.0000000000       3.0841761240
      1.7806499154       5.0364385204       3.0841761240
      0.0000000000       0.0000000000       6.1683522480
K Rb
3 1
direct
   0.2500000000000000    0.2500000000000000    0.2500000000000000 K
   0.7500000000000000    0.7500000000000000    0.7500000000000000 K
   0.5000000000000000    0.5000000000000000    0.5000000000000000 K
   0.0000000000000000    0.0000000000000000    0.0000000000000000 Rb
