U3 Cu1
1.0
      3.0344975149       0.0000000000      -1.8037800221
     -0.9821310829       2.8711659137      -1.8037800221
      0.0000000000       0.0000000000       3.5301271275
U Cu
3 1
direct
   0.7500000000000000    0.2500000000000000    0.5000000000000000 U
   0.2500000000000000    0.7500000000000000    0.5000000000000000 U
   0.5000000000000000    0.5000000000000000    0.0000000000000000 U
   0.0000000000000000    0.0000000000000000    0.0000000000000000 Cu
