U3 Cu1
1.0
      3.4390971836       0.0000000000      -2.0442840251
     -1.1130818940       3.2539880355      -2.0442840251
      0.0000000000       0.0000000000       4.0008107445
U Cu
3 1
direct
   0.7500000000000000    0.2500000000000000    0.5000000000000000 U
   0.2500000000000000    0.7500000000000000    0.5000000000000000 U
   0.5000000000000000    0.5000000000000000    0.0000000000000000 U
   0.0000000000000000    0.0000000000000000    0.0000000000000000 Cu
