U3 Cu1
1.0
      3.6413970179       0.0000000000      -2.1645360266
     -1.1785572995       3.4453990964      -2.1645360266
      0.0000000000       0.0000000000       4.2361525530
U Cu
3 1
direct
   0.7500000000000000    0.2500000000000000    0.5000000000000000 U
   0.2500000000000000    0.7500000000000000    0.5000000000000000 U
   0.5000000000000000    0.5000000000000000    0.0000000000000000 U
   0.0000000000000000    0.0000000000000000    0.0000000000000000 Cu
