U3 Cu1
1.0
      3.2367973493       0.0000000000      -1.9240320236
     -1.0476064885       3.0625769746      -1.9240320236
      0.0000000000       0.0000000000       3.7654689360
U Cu
3 1
direct
   0.7500000000000000    0.2500000000000000    0.5000000000000000 U
   0.2500000000000000    0.7500000000000000    0.5000000000000000 U
   0.5000000000000000    0.5000000000000000    0.0000000000000000 U
   0.0000000000000000    0.0000000000000000    0.0000000000000000 Cu
