U3 Cu1
1.0
      3.8436968522       0.0000000000      -2.2847880280
     -1.2440327050       3.6368101574      -2.2847880280
      0.0000000000       0.0000000000       4.4714943615
U Cu
3 1
direct
   0.7500000000000000    0.2500000000000000    0.5000000000000000 U
   0.2500000000000000    0.7500000000000000    0.5000000000000000 U
   0.5000000000000000    0.5000000000000000    0.0000000000000000 U
   0.0000000000000000    0.0000000000000000    0.0000000000000000 Cu
