Tm1 Zn12
1.0
      5.9553665093       0.0000000000      -0.8721972163
     -4.4478398071       3.9601908173      -0.8721972163
      0.0000000000       0.0000000000       6.0188967630
Tm Zn
1 12
direct
   0.0000000000000000    0.0000000000000000    0.0000000000000000 Tm
   0.0000000000000000    0.0000000000000000    0.5000000000000000 Zn
   0.5000000000000000    0.5000000000000000    0.5000000000000000 Zn
   0.5000000000000000    0.0000000000000000    0.0000000000000000 Zn
   0.0000000000000000    0.5000000000000000    0.0000000000000000 Zn
   0.0000000000000000    0.3532094200000000    0.3532094200000000 Zn
   0.0000000000000000    0.6467905800000000    0.6467905800000000 Zn
   0.6467905800000000    0.0000000000000000    0.6467905800000000 Zn
   0.3532094200000000    0.0000000000000000    0.3532094200000000 Zn
   0.5000000000000000    0.2845883500000000    0.7845883500000000 Zn
   0.5000000000000000    0.7154116500000000    0.2154116500000000 Zn
   0.7154116500000000    0.5000000000000000    0.2154116500000000 Zn
   0.2845883500000000    0.5000000000000000    0.7845883500000000 Zn
