Li2 Be2
1.0
      3.0708570330       0.0000000000       0.0000000000
     -0.0000000000       1.8456969037       0.6341131991
      0.0000000000       0.0000000000       4.9553708085
Li Be
2 2
direct
   0.7500000000000000    0.5819898200000000    0.1548577400000000 Li
   0.2500000000000000    0.4180101800000000    0.8451422600000000 Li
   0.7500000000000000    0.1802464400000000    0.5761716400000000 Be
   0.2500000000000000    0.8197535600000000    0.4238283600000000 Be
