K6 Sm2
1.0
      6.4866218025       0.0000000000       0.0000000000
     -3.2433117062       5.6175788010       0.0000000000
      0.0000000000       0.0000000000       5.3736345000
K Sm
6 2
direct
   0.1714070000000000    0.3428140000000000    0.2500000000000000 K
   0.6571860000000000    0.8285930000000000    0.2500000000000000 K
   0.1714070000000000    0.8285930000000000    0.2500000000000000 K
   0.8285930000000000    0.6571860000000000    0.7500000000000000 K
   0.3428140000000000    0.1714070000000000    0.7500000000000000 K
   0.8285930000000000    0.1714070000000000    0.7500000000000000 K
   0.3333333333333333    0.6666666666666666    0.7500000000000000 Sm
   0.6666666666666666    0.3333333333333333    0.2500000000000000 Sm
