K6 Sm2
1.0
      7.7839461630       0.0000000000       0.0000000000
     -3.8919740474       6.7410945612       0.0000000000
      0.0000000000       0.0000000000       6.4483614000
K Sm
6 2
direct
   0.1714070000000000    0.3428140000000000    0.2500000000000000 K
   0.6571860000000000    0.8285930000000000    0.2500000000000000 K
   0.1714070000000000    0.8285930000000000    0.2500000000000000 K
   0.8285930000000000    0.6571860000000000    0.7500000000000000 K
   0.3428140000000000    0.1714070000000000    0.7500000000000000 K
   0.8285930000000000    0.1714070000000000    0.7500000000000000 K
   0.3333333333333333    0.6666666666666666    0.7500000000000000 Sm
   0.6666666666666666    0.3333333333333333    0.2500000000000000 Sm
