Li1 Yb3
1.0
      3.9114018231       0.0000000000      -3.7545431455
     -0.7106573503       3.8463008660      -3.7545431455
      0.0000000000       0.0000000000       5.4217763190
Li Yb
1 3
direct
   0.0000000000000000    0.0000000000000000    0.0000000000000000 Li
   0.7500000000000000    0.2500000000000000    0.5000000000000000 Yb
   0.2500000000000000    0.7500000000000000    0.5000000000000000 Yb
   0.5000000000000000    0.5000000000000000    0.0000000000000000 Yb
