Li1 Yb3
1.0
      3.6941017218       0.0000000000      -3.5459574152
     -0.6711763864       3.6326174846      -3.5459574152
      0.0000000000       0.0000000000       5.1205665235
Li Yb
1 3
direct
   0.0000000000000000    0.0000000000000000    0.0000000000000000 Li
   0.7500000000000000    0.2500000000000000    0.5000000000000000 Yb
   0.2500000000000000    0.7500000000000000    0.5000000000000000 Yb
   0.5000000000000000    0.5000000000000000    0.0000000000000000 Yb
