K3 Mg1
1.0
      5.5467538493       0.0000000000       3.2024198280
      1.8489179498       5.2295296805       3.2024198280
      0.0000000000       0.0000000000       6.4048396560
K Mg
3 1
direct
   0.5000000000000000    0.5000000000000000    0.5000000000000000 K
   0.7500000000000000    0.7500000000000000    0.7500000000000000 K
   0.2500000000000000    0.2500000000000000    0.2500000000000000 K
   0.0000000000000000    0.0000000000000000    0.0000000000000000 Mg
