K3 Mg1
1.0
      5.2548194361       0.0000000000       3.0338714160
      1.7516064787       4.9542912763       3.0338714160
      0.0000000000       0.0000000000       6.0677428320
K Mg
3 1
direct
   0.5000000000000000    0.5000000000000000    0.5000000000000000 K
   0.7500000000000000    0.7500000000000000    0.7500000000000000 K
   0.2500000000000000    0.2500000000000000    0.2500000000000000 K
   0.0000000000000000    0.0000000000000000    0.0000000000000000 Mg
