K3 Mg1
1.0
      4.9628850230       0.0000000000       2.8653230040
      1.6542950077       4.6790528720       2.8653230040
      0.0000000000       0.0000000000       5.7306460080
K Mg
3 1
direct
   0.5000000000000000    0.5000000000000000    0.5000000000000000 K
   0.7500000000000000    0.7500000000000000    0.7500000000000000 K
   0.2500000000000000    0.2500000000000000    0.2500000000000000 K
   0.0000000000000000    0.0000000000000000    0.0000000000000000 Mg
