K3 Mg1
1.0
      4.6709506099       0.0000000000       2.6967745920
      1.5569835366       4.4038144678       2.6967745920
      0.0000000000       0.0000000000       5.3935491840
K Mg
3 1
direct
   0.5000000000000000    0.5000000000000000    0.5000000000000000 K
   0.7500000000000000    0.7500000000000000    0.7500000000000000 K
   0.2500000000000000    0.2500000000000000    0.2500000000000000 K
   0.0000000000000000    0.0000000000000000    0.0000000000000000 Mg
