K3 Mg1
1.0
      4.3790161968       0.0000000000       2.5282261800
      1.4596720656       4.1285760636       2.5282261800
      0.0000000000       0.0000000000       5.0564523600
K Mg
3 1
direct
   0.5000000000000000    0.5000000000000000    0.5000000000000000 K
   0.7500000000000000    0.7500000000000000    0.7500000000000000 K
   0.2500000000000000    0.2500000000000000    0.2500000000000000 K
   0.0000000000000000    0.0000000000000000    0.0000000000000000 Mg
