Mg2 Si1
1.0
      3.2998851795       0.0000000000       1.9051890169
      1.0999611453       3.1111620472       1.9051890201
      0.0000000000       0.0000000000       3.8103797535
Mg Si
2 1
direct
   0.7500000000000000    0.7500000000000000    0.7500000000000000 Mg
   0.2500000000000000    0.2500000000000000    0.2500000000000000 Mg
   0.0000000000000000    0.0000000000000000    0.0000000000000000 Si
