Mg2 Si1
1.0
      2.9116633937       0.0000000000       1.6810491326
      0.9705539517       2.7451429829       1.6810491354
      0.0000000000       0.0000000000       3.3620997825
Mg Si
2 1
direct
   0.7500000000000000    0.7500000000000000    0.7500000000000000 Mg
   0.2500000000000000    0.2500000000000000    0.2500000000000000 Mg
   0.0000000000000000    0.0000000000000000    0.0000000000000000 Si
