Mg2 Si1
1.0
      3.4939960724       0.0000000000       2.0172589591
      1.1646647421       3.2941715794       2.0172589624
      0.0000000000       0.0000000000       4.0345197390
Mg Si
2 1
direct
   0.7500000000000000    0.7500000000000000    0.7500000000000000 Mg
   0.2500000000000000    0.2500000000000000    0.2500000000000000 Mg
   0.0000000000000000    0.0000000000000000    0.0000000000000000 Si
