Mg2 Si1
1.0
      3.1057742866       0.0000000000       1.7931190747
      1.0352575485       2.9281525151       1.7931190777
      0.0000000000       0.0000000000       3.5862397680
Mg Si
2 1
direct
   0.7500000000000000    0.7500000000000000    0.7500000000000000 Mg
   0.2500000000000000    0.2500000000000000    0.2500000000000000 Mg
   0.0000000000000000    0.0000000000000000    0.0000000000000000 Si
