Mg2 Si1
1.0
      3.6881069654       0.0000000000       2.1293289013
      1.2293683389       3.4771811116       2.1293289048
      0.0000000000       0.0000000000       4.2586597245
Mg Si
2 1
direct
   0.7500000000000000    0.7500000000000000    0.7500000000000000 Mg
   0.2500000000000000    0.2500000000000000    0.2500000000000000 Mg
   0.0000000000000000    0.0000000000000000    0.0000000000000000 Si
