Cu24 As8
1.0
      6.2531398985       0.0000000000      -2.2108192004
     -3.1265699501       5.4153777020      -2.2108191985
      0.0000000000       0.0000000000       6.6324567840
Cu As
24 8
direct
   0.6995254600000000    0.3508020300000000    0.7860828100000000 Cu
   0.1491979700000000    0.8487234299999999    0.4352787800000000 Cu
   0.7139171900000000    0.0647212200000000    0.9134426500000000 Cu
   0.8004745400000000    0.5865573500000000    0.6512765700000001 Cu
   0.5865573500000000    0.6512765700000001    0.8004745400000000 Cu
   0.6512765700000001    0.8004745400000000    0.5865573500000000 Cu
   0.1995254600000000    0.2860828100000000    0.8508020300000000 Cu
   0.9352797800000000    0.3487234300000000    0.6491979700000000 Cu
   0.3004745400000000    0.1512765700000000    0.0865573500000000 Cu
   0.8487234299999999    0.4352787800000000    0.1491979700000000 Cu
   0.7860828100000000    0.6995254600000000    0.3508020300000000 Cu
   0.3508020300000000    0.7860828100000000    0.6995254600000000 Cu
   0.9134426500000000    0.7139171900000000    0.0647212200000000 Cu
   0.0647212200000000    0.9134426500000000    0.7139171900000000 Cu
   0.4352787800000000    0.1491979700000000    0.8487234299999999 Cu
   0.2139171900000000    0.4134426500000000    0.5647202200000000 Cu
   0.6491979700000000    0.9352797800000000    0.3487234300000000 Cu
   0.2860828100000000    0.8508020300000000    0.1995254600000000 Cu
   0.4134426500000000    0.5647202200000000    0.2139171900000000 Cu
   0.3487234300000000    0.6491979700000000    0.9352797800000000 Cu
   0.8508020300000000    0.1995254600000000    0.2860828100000000 Cu
   0.0865573500000000    0.3004745400000000    0.1512765700000000 Cu
   0.1512765700000000    0.0865573500000000    0.3004745400000000 Cu
   0.5647202200000000    0.2139171900000000    0.4134426500000000 Cu
   0.4333782600000000    0.4333782600000000    0.4333782600000000 As
   0.5666217400000000    0.5000000000000000    0.0000000000000000 As
   0.5000000000000000    0.0000000000000000    0.5666217400000000 As
   0.0000000000000000    0.5666217400000000    0.5000000000000000 As
   0.5000000000000000    0.0000000000000000    0.0666217400000000 As
   0.0000000000000000    0.0666217400000000    0.5000000000000000 As
   0.0666217400000000    0.5000000000000000    0.0000000000000000 As
   0.9333782600000000    0.9333782600000000    0.9333782600000000 As
