Mn3 Ga1
1.0
      2.2093559890       0.0000000000       0.0000000000
     -1.1046782870       1.9133582436       0.0000000000
      0.0000000000       0.0000000000       6.9340535000
Mn Ga
3 1
direct
   0.3333333333333333    0.6666666666666666    0.5000000000000000 Mn
   0.0000000000000000    0.0000000000000000    0.2607790000000000 Mn
   0.0000000000000000    0.0000000000000000    0.7392210000000000 Mn
   0.3333333333333333    0.6666666666666666    0.0000000000000000 Ga
