Mn3 Ga1
1.0
      2.3393181060       0.0000000000       0.0000000000
     -1.1696593627       2.0259087285       0.0000000000
      0.0000000000       0.0000000000       7.3419390000
Mn Ga
3 1
direct
   0.3333333333333333    0.6666666666666666    0.5000000000000000 Mn
   0.0000000000000000    0.0000000000000000    0.2607790000000000 Mn
   0.0000000000000000    0.0000000000000000    0.7392210000000000 Mn
   0.3333333333333333    0.6666666666666666    0.0000000000000000 Ga
