Li1 I1
1.0
      3.2893707032       0.0000000000       1.8991194031
      1.0964575205       3.1012477517       1.8991193956
      0.0000000000       0.0000000000       3.7982378610
Li I
1 1
direct
   0.0000000000000000    0.0000000000000000    0.0000000000000000 Li
   0.5000000000000000    0.5000000000000000    0.5000000000000000 I
