Li1 I1
1.0
      2.9238850695       0.0000000000       1.6881061361
      0.9746289072       2.7566646682       1.6881061295
      0.0000000000       0.0000000000       3.3762114320
Li I
1 1
direct
   0.0000000000000000    0.0000000000000000    0.0000000000000000 Li
   0.5000000000000000    0.5000000000000000    0.5000000000000000 I
