Li1 I1
1.0
      3.4721135200       0.0000000000       2.0046260366
      1.1573718272       3.2735392934       2.0046260287
      0.0000000000       0.0000000000       4.0092510755
Li I
1 1
direct
   0.0000000000000000    0.0000000000000000    0.0000000000000000 Li
   0.5000000000000000    0.5000000000000000    0.5000000000000000 I
