K6 O6
1.0
      6.6642160565       0.0000000000       0.0000000000
     -3.3321075486       5.7713792960       0.0000000000
      0.0000000000       0.0000000000       4.8004384545
K O
6 6
direct
   0.0000000000000000    0.7066275100000000    0.5000000000000000 K
   0.2933724900000000    0.2933724900000000    0.5000000000000000 K
   0.7066275100000000    0.0000000000000000    0.5000000000000000 K
   0.0000000000000000    0.3682191400000000    0.0000000000000000 K
   0.6317808600000000    0.6317808600000000    0.0000000000000000 K
   0.3682191400000000    0.0000000000000000    0.0000000000000000 K
   0.6666666666666666    0.3333333333333333    0.3481441800000000 O
   0.6666666666666666    0.3333333333333333    0.6518558200000000 O
   0.3333333333333333    0.6666666666666666    0.6518558200000000 O
   0.3333333333333333    0.6666666666666666    0.3481441800000000 O
   0.0000000000000000    0.0000000000000000    0.8500328500000000 O
   0.0000000000000000    0.0000000000000000    0.1499671500000000 O
