Dy1 Zn5
1.0
      3.9215613000       0.0000000000       0.0000000000
     -1.9607802735       3.3961716572       0.0000000000
      0.0000000000       0.0000000000       3.1320028275
Dy Zn
1 5
direct
   0.0000000000000000    0.0000000000000000    0.0000000000000000 Dy
   0.0000000000000000    0.5000000000000000    0.5000000000000000 Zn
   0.3333333333333333    0.6666666666666666    0.0000000000000000 Zn
   0.6666666666666666    0.3333333333333333    0.0000000000000000 Zn
   0.5000000000000000    0.0000000000000000    0.5000000000000000 Zn
   0.5000000000000000    0.5000000000000000    0.5000000000000000 Zn
