Zn1 Cu3
1.0
      2.1772408640       0.0000000000       0.0000000000
     -1.0886208924       1.8855456326       0.0000000000
      0.0000000000       0.0000000000       7.1379485675
Zn Cu
1 3
direct
   0.6666666666666666    0.3333333333333333    0.0000000000000000 Zn
   0.6666666666666666    0.3333333333333333    0.5000000000000000 Cu
   0.3333333333333333    0.6666666666666666    0.2540725300000000 Cu
   0.3333333333333333    0.6666666666666666    0.7459274700000000 Cu
