Zn1 Cu3
1.0
      2.0491678720       0.0000000000       0.0000000000
     -1.0245843693       1.7746311836       0.0000000000
      0.0000000000       0.0000000000       6.7180692400
Zn Cu
1 3
direct
   0.6666666666666666    0.3333333333333333    0.0000000000000000 Zn
   0.6666666666666666    0.3333333333333333    0.5000000000000000 Cu
   0.3333333333333333    0.6666666666666666    0.2540725300000000 Cu
   0.3333333333333333    0.6666666666666666    0.7459274700000000 Cu
