Zn1 Cu3
1.0
      2.4333868480       0.0000000000       0.0000000000
     -1.2166939386       2.1073745305       0.0000000000
      0.0000000000       0.0000000000       7.9777072225
Zn Cu
1 3
direct
   0.6666666666666666    0.3333333333333333    0.0000000000000000 Zn
   0.6666666666666666    0.3333333333333333    0.5000000000000000 Cu
   0.3333333333333333    0.6666666666666666    0.2540725300000000 Cu
   0.3333333333333333    0.6666666666666666    0.7459274700000000 Cu
