Zn1 Cu3
1.0
      1.9210948800       0.0000000000       0.0000000000
     -0.9605478462       1.6637167346       0.0000000000
      0.0000000000       0.0000000000       6.2981899125
Zn Cu
1 3
direct
   0.6666666666666666    0.3333333333333333    0.0000000000000000 Zn
   0.6666666666666666    0.3333333333333333    0.5000000000000000 Cu
   0.3333333333333333    0.6666666666666666    0.2540725300000000 Cu
   0.3333333333333333    0.6666666666666666    0.7459274700000000 Cu
