Zn1 Cu3
1.0
      2.3053138560       0.0000000000       0.0000000000
     -1.1526574155       1.9964600815       0.0000000000
      0.0000000000       0.0000000000       7.5578278950
Zn Cu
1 3
direct
   0.6666666666666666    0.3333333333333333    0.0000000000000000 Zn
   0.6666666666666666    0.3333333333333333    0.5000000000000000 Cu
   0.3333333333333333    0.6666666666666666    0.2540725300000000 Cu
   0.3333333333333333    0.6666666666666666    0.7459274700000000 Cu
