Zr2 Zn4
1.0
      3.6042186819       0.0000000000       2.0808990493
      1.2014054091       3.3980897164       2.0808977454
      0.0000000000       0.0000000000       4.1617933760
Zr Zn
2 4
direct
   0.8750000000000000    0.8750000000000000    0.8750000000000000 Zr
   0.1250000000000000    0.1250000000000000    0.1250000000000000 Zr
   0.5000000000000000    0.5000000000000000    0.5000000000000000 Zn
   0.5000000000000000    0.5000000000000000    0.0000000000000000 Zn
   0.0000000000000000    0.5000000000000000    0.5000000000000000 Zn
   0.5000000000000000    0.0000000000000000    0.5000000000000000 Zn
