Zr2 Zn4
1.0
      3.3789550143       0.0000000000       1.9508428588
      1.1263175711       3.1857091091       1.9508416364
      0.0000000000       0.0000000000       3.9016812900
Zr Zn
2 4
direct
   0.8750000000000000    0.8750000000000000    0.8750000000000000 Zr
   0.1250000000000000    0.1250000000000000    0.1250000000000000 Zr
   0.5000000000000000    0.5000000000000000    0.5000000000000000 Zn
   0.5000000000000000    0.5000000000000000    0.0000000000000000 Zn
   0.0000000000000000    0.5000000000000000    0.5000000000000000 Zn
   0.5000000000000000    0.0000000000000000    0.5000000000000000 Zn
