K1 Yb3
1.0
      3.7285646944       0.0000000000       2.1526878300
      1.2428548981       3.5153245060       2.1526878300
      0.0000000000       0.0000000000       4.3053756600
K Yb
1 3
direct
   0.0000000000000000    0.0000000000000000    0.0000000000000000 K
   0.2500000000000000    0.2500000000000000    0.2500000000000000 Yb
   0.7500000000000000    0.7500000000000000    0.7500000000000000 Yb
   0.5000000000000000    0.5000000000000000    0.5000000000000000 Yb
