K1 Yb3
1.0
      4.7228486129       0.0000000000       2.7267379180
      1.5742828710       4.4527443743       2.7267379180
      0.0000000000       0.0000000000       5.4534758360
K Yb
1 3
direct
   0.0000000000000000    0.0000000000000000    0.0000000000000000 K
   0.2500000000000000    0.2500000000000000    0.2500000000000000 Yb
   0.7500000000000000    0.7500000000000000    0.7500000000000000 Yb
   0.5000000000000000    0.5000000000000000    0.5000000000000000 Yb
