K1 Yb3
1.0
      4.4742776333       0.0000000000       2.5832253960
      1.4914258778       4.2183894072       2.5832253960
      0.0000000000       0.0000000000       5.1664507920
K Yb
1 3
direct
   0.0000000000000000    0.0000000000000000    0.0000000000000000 K
   0.2500000000000000    0.2500000000000000    0.2500000000000000 Yb
   0.7500000000000000    0.7500000000000000    0.7500000000000000 Yb
   0.5000000000000000    0.5000000000000000    0.5000000000000000 Yb
