K1 Yb3
1.0
      3.9771356740       0.0000000000       2.2962003520
      1.3257118913       3.7496794731       2.2962003520
      0.0000000000       0.0000000000       4.5924007040
K Yb
1 3
direct
   0.0000000000000000    0.0000000000000000    0.0000000000000000 K
   0.2500000000000000    0.2500000000000000    0.2500000000000000 Yb
   0.7500000000000000    0.7500000000000000    0.7500000000000000 Yb
   0.5000000000000000    0.5000000000000000    0.5000000000000000 Yb
