K1 Yb3
1.0
      4.2257066536       0.0000000000       2.4397128740
      1.4085688845       3.9840344401       2.4397128740
      0.0000000000       0.0000000000       4.8794257480
K Yb
1 3
direct
   0.0000000000000000    0.0000000000000000    0.0000000000000000 K
   0.2500000000000000    0.2500000000000000    0.2500000000000000 Yb
   0.7500000000000000    0.7500000000000000    0.7500000000000000 Yb
   0.5000000000000000    0.5000000000000000    0.5000000000000000 Yb
