Cu2 Se1
1.0
      2.6647469194       0.0000000000       1.5384923513
      0.8882489731       2.5123474892       1.5384923513
      0.0000000000       0.0000000000       3.0769847025
Cu Se
2 1
direct
   0.2500000000000000    0.2500000000000000    0.2500000000000000 Cu
   0.7500000000000000    0.7500000000000000    0.7500000000000000 Cu
   0.0000000000000000    0.0000000000000000    0.0000000000000000 Se
