Cu2 Se1
1.0
      3.1976963033       0.0000000000       1.8461908215
      1.0658987678       3.0148169870       1.8461908215
      0.0000000000       0.0000000000       3.6923816430
Cu Se
2 1
direct
   0.2500000000000000    0.2500000000000000    0.2500000000000000 Cu
   0.7500000000000000    0.7500000000000000    0.7500000000000000 Cu
   0.0000000000000000    0.0000000000000000    0.0000000000000000 Se
