Cu2 Se1
1.0
      3.0200465087       0.0000000000       1.7436246648
      1.0066821696       2.8473271544       1.7436246648
      0.0000000000       0.0000000000       3.4872493295
Cu Se
2 1
direct
   0.2500000000000000    0.2500000000000000    0.2500000000000000 Cu
   0.7500000000000000    0.7500000000000000    0.7500000000000000 Cu
   0.0000000000000000    0.0000000000000000    0.0000000000000000 Se
