Cu2 Se1
1.0
      3.3753460979       0.0000000000       1.9487569783
      1.1251153660       3.1823068196       1.9487569783
      0.0000000000       0.0000000000       3.8975139565
Cu Se
2 1
direct
   0.2500000000000000    0.2500000000000000    0.2500000000000000 Cu
   0.7500000000000000    0.7500000000000000    0.7500000000000000 Cu
   0.0000000000000000    0.0000000000000000    0.0000000000000000 Se
