Cu2 Se1
1.0
      2.8423967140       0.0000000000       1.6410585080
      0.9474655713       2.6798373218       1.6410585080
      0.0000000000       0.0000000000       3.2821170160
Cu Se
2 1
direct
   0.2500000000000000    0.2500000000000000    0.2500000000000000 Cu
   0.7500000000000000    0.7500000000000000    0.7500000000000000 Cu
   0.0000000000000000    0.0000000000000000    0.0000000000000000 Se
