Zn1 Cu1
1.0
      2.4615973260       0.0000000000       0.0000000000
     -0.8379607675       2.3145805554       0.0000000000
      0.0000000000       0.0000000000       3.9337087000
Zn Cu
1 1
direct
   0.5000000000000000    0.5000000000000000    0.5000000000000000 Zn
   0.0000000000000000    0.0000000000000000    0.0000000000000000 Cu
