Zn1 Cu1
1.0
      2.0729240640       0.0000000000       0.0000000000
     -0.7056511726       1.9491204677       0.0000000000
      0.0000000000       0.0000000000       3.3125968000
Zn Cu
1 1
direct
   0.5000000000000000    0.5000000000000000    0.5000000000000000 Zn
   0.0000000000000000    0.0000000000000000    0.0000000000000000 Cu
