Zn1 Cu1
1.0
      1.9433663100       0.0000000000       0.0000000000
     -0.6615479743       1.8273004385       0.0000000000
      0.0000000000       0.0000000000       3.1055595000
Zn Cu
1 1
direct
   0.5000000000000000    0.5000000000000000    0.5000000000000000 Zn
   0.0000000000000000    0.0000000000000000    0.0000000000000000 Cu
