Zn1 Cu1
1.0
      2.3320395720       0.0000000000       0.0000000000
     -0.7938575692       2.1927605262       0.0000000000
      0.0000000000       0.0000000000       3.7266714000
Zn Cu
1 1
direct
   0.5000000000000000    0.5000000000000000    0.5000000000000000 Zn
   0.0000000000000000    0.0000000000000000    0.0000000000000000 Cu
