Zn1 Cu1
1.0
      2.2024818180       0.0000000000       0.0000000000
     -0.7497543709       2.0709404970       0.0000000000
      0.0000000000       0.0000000000       3.5196341000
Zn Cu
1 1
direct
   0.5000000000000000    0.5000000000000000    0.5000000000000000 Zn
   0.0000000000000000    0.0000000000000000    0.0000000000000000 Cu
