K3 Yb1
1.0
      5.3755937368       0.0000000000       3.1036004910
      1.7918645789       5.0681583789       3.1036004910
      0.0000000000       0.0000000000       6.2072009820
K Yb
3 1
direct
   0.2500000000000000    0.2500000000000000    0.2500000000000000 K
   0.7500000000000000    0.7500000000000000    0.7500000000000000 K
   0.5000000000000000    0.5000000000000000    0.5000000000000000 K
   0.0000000000000000    0.0000000000000000    0.0000000000000000 Yb
