K3 Yb1
1.0
      5.6742378333       0.0000000000       3.2760227405
      1.8914126111       5.3497227333       3.2760227405
      0.0000000000       0.0000000000       6.5520454810
K Yb
3 1
direct
   0.2500000000000000    0.2500000000000000    0.2500000000000000 K
   0.7500000000000000    0.7500000000000000    0.7500000000000000 K
   0.5000000000000000    0.5000000000000000    0.5000000000000000 K
   0.0000000000000000    0.0000000000000000    0.0000000000000000 Yb
