K3 Yb1
1.0
      5.0769496403       0.0000000000       2.9311782415
      1.6923165468       4.7865940245       2.9311782415
      0.0000000000       0.0000000000       5.8623564830
K Yb
3 1
direct
   0.2500000000000000    0.2500000000000000    0.2500000000000000 K
   0.7500000000000000    0.7500000000000000    0.7500000000000000 K
   0.5000000000000000    0.5000000000000000    0.5000000000000000 K
   0.0000000000000000    0.0000000000000000    0.0000000000000000 Yb
