K3 Yb1
1.0
      4.7783055438       0.0000000000       2.7587559920
      1.5927685146       4.5050296702       2.7587559920
      0.0000000000       0.0000000000       5.5175119840
K Yb
3 1
direct
   0.2500000000000000    0.2500000000000000    0.2500000000000000 K
   0.7500000000000000    0.7500000000000000    0.7500000000000000 K
   0.5000000000000000    0.5000000000000000    0.5000000000000000 K
   0.0000000000000000    0.0000000000000000    0.0000000000000000 Yb
