Gd1 Cu1
1.0
      2.6137952775       0.0000000000       0.0000000000
     -0.0000000000       2.6137952775       0.0000000000
      0.0000000000       0.0000000000       2.6137952775
Gd Cu
1 1
direct
   0.5000000000000000    0.5000000000000000    0.5000000000000000 Gd
   0.0000000000000000    0.0000000000000000    0.0000000000000000 Cu
