V3 Cu1
1.0
      3.0255406461       0.0000000000      -2.9067973136
     -0.5490280927       2.9753091191      -2.9067973136
      0.0000000000       0.0000000000       4.1956366410
V Cu
3 1
direct
   0.7500000000000000    0.2500000000000000    0.5000000000000000 V
   0.2500000000000000    0.7500000000000000    0.5000000000000000 V
   0.5000000000000000    0.5000000000000000    0.0000000000000000 V
   0.0000000000000000    0.0000000000000000    0.0000000000000000 Cu
