V3 Cu1
1.0
      3.1936262375       0.0000000000      -3.0682860532
     -0.5795296534       3.1406040702      -3.0682860532
      0.0000000000       0.0000000000       4.4287275655
V Cu
3 1
direct
   0.7500000000000000    0.2500000000000000    0.5000000000000000 V
   0.2500000000000000    0.7500000000000000    0.5000000000000000 V
   0.5000000000000000    0.5000000000000000    0.0000000000000000 V
   0.0000000000000000    0.0000000000000000    0.0000000000000000 Cu
