V3 Cu1
1.0
      2.8574550546       0.0000000000      -2.7453085740
     -0.5185265320       2.8100141681      -2.7453085740
      0.0000000000       0.0000000000       3.9625457165
V Cu
3 1
direct
   0.7500000000000000    0.2500000000000000    0.5000000000000000 V
   0.2500000000000000    0.7500000000000000    0.5000000000000000 V
   0.5000000000000000    0.5000000000000000    0.0000000000000000 V
   0.0000000000000000    0.0000000000000000    0.0000000000000000 Cu
