V3 Cu1
1.0
      2.5212838717       0.0000000000      -2.4223310947
     -0.4575234106       2.4794242659      -2.4223310947
      0.0000000000       0.0000000000       3.4963638675
V Cu
3 1
direct
   0.7500000000000000    0.2500000000000000    0.5000000000000000 V
   0.2500000000000000    0.7500000000000000    0.5000000000000000 V
   0.5000000000000000    0.5000000000000000    0.0000000000000000 V
   0.0000000000000000    0.0000000000000000    0.0000000000000000 Cu
