V3 Cu1
1.0
      2.6893694632       0.0000000000      -2.5838198343
     -0.4880249713       2.6447192170      -2.5838198343
      0.0000000000       0.0000000000       3.7294547920
V Cu
3 1
direct
   0.7500000000000000    0.2500000000000000    0.5000000000000000 V
   0.2500000000000000    0.7500000000000000    0.5000000000000000 V
   0.5000000000000000    0.5000000000000000    0.0000000000000000 V
   0.0000000000000000    0.0000000000000000    0.0000000000000000 Cu
