K6 Pu6
1.0
      7.0751457680       0.0000000000      -2.2788297879
     -3.1281050594       6.3460733036      -2.2788297879
      0.0000000000       0.0000000000       7.4330851340
K Pu
6 6
direct
   0.6009880000000000    0.5487730000000000    0.8488050000000000 K
   0.8488050000000000    0.6009880000000000    0.5487730000000000 K
   0.5487730000000000    0.8488050000000000    0.6009880000000000 K
   0.3990120000000000    0.4512270000000000    0.1511950000000000 K
   0.1511950000000000    0.3990120000000000    0.4512270000000000 K
   0.4512270000000000    0.1511950000000000    0.3990120000000000 K
   0.3182030000000000    0.8099440000000000    0.9591370000000000 Pu
   0.9591370000000000    0.3182030000000000    0.8099440000000000 Pu
   0.8099440000000000    0.9591370000000000    0.3182030000000000 Pu
   0.6817970000000000    0.1900560000000000    0.0408630000000000 Pu
   0.0408630000000000    0.6817970000000000    0.1900560000000000 Pu
   0.1900560000000000    0.0408630000000000    0.6817970000000000 Pu
