K6 Pu6
1.0
      7.4913308131       0.0000000000      -2.4128785990
     -3.3121112394       6.7193717333      -2.4128785990
      0.0000000000       0.0000000000       7.8703254360
K Pu
6 6
direct
   0.6009880000000000    0.5487730000000000    0.8488050000000000 K
   0.8488050000000000    0.6009880000000000    0.5487730000000000 K
   0.5487730000000000    0.8488050000000000    0.6009880000000000 K
   0.3990120000000000    0.4512270000000000    0.1511950000000000 K
   0.1511950000000000    0.3990120000000000    0.4512270000000000 K
   0.4512270000000000    0.1511950000000000    0.3990120000000000 K
   0.3182030000000000    0.8099440000000000    0.9591370000000000 Pu
   0.9591370000000000    0.3182030000000000    0.8099440000000000 Pu
   0.8099440000000000    0.9591370000000000    0.3182030000000000 Pu
   0.6817970000000000    0.1900560000000000    0.0408630000000000 Pu
   0.0408630000000000    0.6817970000000000    0.1900560000000000 Pu
   0.1900560000000000    0.0408630000000000    0.6817970000000000 Pu
