Li2 Ga6
1.0
      4.4938841440       0.0000000000       0.0000000000
     -2.2469413839       3.8918182276       0.0000000000
      0.0000000000       0.0000000000       3.8019788160
Li Ga
2 6
direct
   0.6666666666666666    0.3333333333333333    0.2500000000000000 Li
   0.3333333333333333    0.6666666666666666    0.7500000000000000 Li
   0.8331693600000000    0.1668306400000000    0.7500000000000000 Ga
   0.3336602800000000    0.1668306400000000    0.7500000000000000 Ga
   0.8331693600000000    0.6663397200000000    0.7500000000000000 Ga
   0.1668306400000000    0.8331693600000000    0.2500000000000000 Ga
   0.6663397200000000    0.8331693600000000    0.2500000000000000 Ga
   0.1668306400000000    0.3336602800000000    0.2500000000000000 Ga
