Mn8 B2
1.0
      6.1035001203       0.0000000000       2.6038710328
      5.3743974345       2.8928473861       0.8545120528
      0.0000000000       0.0000000000       3.4583830830
Mn B
8 2
direct
   0.8322950000000000    0.8322950000000000    0.6677050000000000 Mn
   0.6677050000000000    0.6677050000000000    0.8322950000000000 Mn
   0.9188220000000000    0.9188220000000000    0.0811780000000000 Mn
   0.0811780000000000    0.0811780000000000    0.9188220000000000 Mn
   0.4217280000000000    0.0782720000000000    0.4217280000000000 Mn
   0.3435280000000000    0.6564720000000001    0.3435280000000000 Mn
   0.0782720000000000    0.4217280000000000    0.0782720000000000 Mn
   0.6564720000000001    0.3435280000000000    0.6564720000000001 Mn
   0.1251630000000000    0.1251630000000000    0.3748370000000000 B
   0.3748370000000000    0.3748370000000000    0.1251630000000000 B
