K4 As4
1.0
      3.8020704000       0.0000000000       0.0000000000
     -0.0000000000       6.3151792000       0.0000000000
      0.0000000000       0.0000000000       6.8484584000
K As
4 4
direct
   0.6951300000000000    0.2500000000000000    0.5000000000000000 K
   0.3048700000000000    0.7500000000000000    0.0000000000000000 K
   0.3048700000000000    0.7500000000000000    0.5000000000000000 K
   0.6951300000000000    0.2500000000000000    0.0000000000000000 K
   0.8070150000000000    0.5881360000000000    0.2500000000000000 As
   0.1929850000000000    0.0881360000000000    0.2500000000000000 As
   0.1929850000000000    0.4118640000000000    0.7500000000000000 As
   0.8070150000000000    0.9118640000000000    0.7500000000000000 As
