Li3 Mg1
1.0
      2.2884414225       0.0000000000       0.0000000000
     -0.0000000000       3.7914503400       0.0000000000
      0.0000000000       0.0000000000       3.9577073250
Li Mg
3 1
direct
   0.0000000000000000    0.0000000000000000    0.9945255000000000 Li
   0.5000000000000000    0.0000000000000000    0.4934036100000000 Li
   0.5000000000000000    0.5000000000000000    0.8360069900000000 Li
   0.0000000000000000    0.5000000000000000    0.3427309000000000 Mg
