Mn6 N8
1.0
      6.6544981560       0.0000000000       0.0000000000
     -3.3272485379       5.7629647644       0.0000000000
      0.0000000000       0.0000000000       2.2270476000
Mn N
6 8
direct
   0.5501930000000000    0.7297520000000000    0.7500000000000000 Mn
   0.1795590000000000    0.4498070000000000    0.7500000000000000 Mn
   0.2702480000000000    0.8204410000000000    0.7500000000000000 Mn
   0.4498070000000000    0.2702480000000000    0.2500000000000000 Mn
   0.8204410000000000    0.5501930000000000    0.2500000000000000 Mn
   0.7297520000000000    0.1795590000000000    0.2500000000000000 Mn
   0.6735060000000000    0.9903620000000000    0.7500000000000000 N
   0.3168570000000000    0.3264940000000000    0.7500000000000000 N
   0.0096380000000000    0.6831429999999999    0.7500000000000000 N
   0.3264940000000000    0.0096380000000000    0.2500000000000000 N
   0.6831429999999999    0.6735060000000000    0.2500000000000000 N
   0.9903620000000000    0.3168570000000000    0.2500000000000000 N
   0.6666666666666666    0.3333333333333333    0.7500000000000000 N
   0.3333333333333333    0.6666666666666666    0.2500000000000000 N
