Li2 O1
1.0
      2.5648226970       0.0000000000       1.4808014983
      0.8549406002       2.4181380010       1.4808015003
      0.0000000000       0.0000000000       2.9616021000
Li O
2 1
direct
   0.7500000000000000    0.7500000000000000    0.7500000000000000 Li
   0.2500000000000000    0.2500000000000000    0.2500000000000000 Li
   0.0000000000000000    0.0000000000000000    0.0000000000000000 O
