Li2 O1
1.0
      2.1373522475       0.0000000000       1.2340012486
      0.7124505001       2.0151150008       1.2340012502
      0.0000000000       0.0000000000       2.4680017500
Li O
2 1
direct
   0.7500000000000000    0.7500000000000000    0.7500000000000000 Li
   0.2500000000000000    0.2500000000000000    0.2500000000000000 Li
   0.0000000000000000    0.0000000000000000    0.0000000000000000 O
