Li2 O1
1.0
      2.4223325472       0.0000000000       1.3985347484
      0.8074439002       2.2837970010       1.3985347503
      0.0000000000       0.0000000000       2.7970686500
Li O
2 1
direct
   0.7500000000000000    0.7500000000000000    0.7500000000000000 Li
   0.2500000000000000    0.2500000000000000    0.2500000000000000 Li
   0.0000000000000000    0.0000000000000000    0.0000000000000000 O
