Li2 O1
1.0
      2.7073128469       0.0000000000       1.5630682482
      0.9024373002       2.5524790011       1.5630682503
      0.0000000000       0.0000000000       3.1261355500
Li O
2 1
direct
   0.7500000000000000    0.7500000000000000    0.7500000000000000 Li
   0.2500000000000000    0.2500000000000000    0.2500000000000000 Li
   0.0000000000000000    0.0000000000000000    0.0000000000000000 O
