Li1 Ho3
1.0
      3.6458017500       0.0000000000       0.0000000000
     -0.0000000000       3.6458017500       0.0000000000
      0.0000000000       0.0000000000       3.6458017500
Li Ho
1 3
direct
   0.0000000000000000    0.0000000000000000    0.0000000000000000 Li
   0.5000000000000000    0.5000000000000000    0.0000000000000000 Ho
   0.5000000000000000    0.0000000000000000    0.5000000000000000 Ho
   0.0000000000000000    0.5000000000000000    0.5000000000000000 Ho
