K1 Hg3
1.0
      3.8213260506       0.0000000000       2.2062436240
      1.2737753502       3.6027807514       2.2062436240
      0.0000000000       0.0000000000       4.4124872480
K Hg
1 3
direct
   0.0000000000000000    0.0000000000000000    0.0000000000000000 K
   0.2500000000000000    0.2500000000000000    0.2500000000000000 Hg
   0.7500000000000000    0.7500000000000000    0.7500000000000000 Hg
   0.5000000000000000    0.5000000000000000    0.5000000000000000 Hg
