K1 Hg3
1.0
      3.5824931725       0.0000000000       2.0683533975
      1.1941643908       3.3776069544       2.0683533975
      0.0000000000       0.0000000000       4.1367067950
K Hg
1 3
direct
   0.0000000000000000    0.0000000000000000    0.0000000000000000 K
   0.2500000000000000    0.2500000000000000    0.2500000000000000 Hg
   0.7500000000000000    0.7500000000000000    0.7500000000000000 Hg
   0.5000000000000000    0.5000000000000000    0.5000000000000000 Hg
