K1 Hg3
1.0
      4.5378246851       0.0000000000       2.6199143035
      1.5126082284       4.2783021423       2.6199143035
      0.0000000000       0.0000000000       5.2398286070
K Hg
1 3
direct
   0.0000000000000000    0.0000000000000000    0.0000000000000000 K
   0.2500000000000000    0.2500000000000000    0.2500000000000000 Hg
   0.7500000000000000    0.7500000000000000    0.7500000000000000 Hg
   0.5000000000000000    0.5000000000000000    0.5000000000000000 Hg
