K1 Hg3
1.0
      4.0601589288       0.0000000000       2.3441338505
      1.3533863096       3.8279545483       2.3441338505
      0.0000000000       0.0000000000       4.6882677010
K Hg
1 3
direct
   0.0000000000000000    0.0000000000000000    0.0000000000000000 K
   0.2500000000000000    0.2500000000000000    0.2500000000000000 Hg
   0.7500000000000000    0.7500000000000000    0.7500000000000000 Hg
   0.5000000000000000    0.5000000000000000    0.5000000000000000 Hg
