K1 Hg3
1.0
      4.2989918070       0.0000000000       2.4820240770
      1.4329972690       4.0531283453       2.4820240770
      0.0000000000       0.0000000000       4.9640481540
K Hg
1 3
direct
   0.0000000000000000    0.0000000000000000    0.0000000000000000 K
   0.2500000000000000    0.2500000000000000    0.2500000000000000 Hg
   0.7500000000000000    0.7500000000000000    0.7500000000000000 Hg
   0.5000000000000000    0.5000000000000000    0.5000000000000000 Hg
