K6 Re3
1.0
     10.0884685225       0.0000000000       0.0000000000
     -5.0498819701       8.7336065556       0.0000000000
      0.0000000000       0.0000000000       2.6130956500
K Re
6 3
direct
   0.3578280000000000    0.3578280000000000    0.0000000000000000 K
   0.6425360000000000    0.9996990000000000    0.0000000000000000 K
   0.9996990000000000    0.6425360000000000    0.0000000000000000 K
   0.6898430000000000    0.6898430000000000    0.5000000000000000 K
   0.3102010000000000    0.0004170000000000    0.5000000000000000 K
   0.0004170000000000    0.3102010000000000    0.5000000000000000 K
   0.9999720000000000    0.9999720000000000    0.0000000000000000 Re
   0.6666666666666666    0.3328900000000000    0.5000000000000000 Re
   0.3328900000000000    0.6666666666666666    0.5000000000000000 Re
