Cu2 Se1
1.0
      2.8338293811       0.0000000000       1.6361121560
      0.9446097937       2.6717599628       1.6361121560
      0.0000000000       0.0000000000       3.2722243120
Cu Se
2 1
direct
   0.5000000000000000    0.5000000000000000    0.5000000000000000 Cu
   0.7500000000000000    0.7500000000000000    0.7500000000000000 Cu
   0.0000000000000000    0.0000000000000000    0.0000000000000000 Se
