Cu2 Se1
1.0
      3.0109437174       0.0000000000       1.7383691658
      1.0036479058       2.8387449605       1.7383691658
      0.0000000000       0.0000000000       3.4767383315
Cu Se
2 1
direct
   0.5000000000000000    0.5000000000000000    0.5000000000000000 Cu
   0.7500000000000000    0.7500000000000000    0.7500000000000000 Cu
   0.0000000000000000    0.0000000000000000    0.0000000000000000 Se
