Cu2 Se1
1.0
      3.1880580537       0.0000000000       1.8406261755
      1.0626860179       3.0057299581       1.8406261755
      0.0000000000       0.0000000000       3.6812523510
Cu Se
2 1
direct
   0.5000000000000000    0.5000000000000000    0.5000000000000000 Cu
   0.7500000000000000    0.7500000000000000    0.7500000000000000 Cu
   0.0000000000000000    0.0000000000000000    0.0000000000000000 Se
