Cu2 Se1
1.0
      2.6567150448       0.0000000000       1.5338551463
      0.8855716816       2.5047749651       1.5338551463
      0.0000000000       0.0000000000       3.0677102925
Cu Se
2 1
direct
   0.5000000000000000    0.5000000000000000    0.5000000000000000 Cu
   0.7500000000000000    0.7500000000000000    0.7500000000000000 Cu
   0.0000000000000000    0.0000000000000000    0.0000000000000000 Se
