Cu2 Se1
1.0
      3.3651723900       0.0000000000       1.9428831853
      1.1217241300       3.1727149558       1.9428831853
      0.0000000000       0.0000000000       3.8857663705
Cu Se
2 1
direct
   0.5000000000000000    0.5000000000000000    0.5000000000000000 Cu
   0.7500000000000000    0.7500000000000000    0.7500000000000000 Cu
   0.0000000000000000    0.0000000000000000    0.0000000000000000 Se
