K3 Pr1
1.0
      4.8760418498       0.0000000000      -5.2014558371
     -0.7624354395       4.8160644017      -5.2014558371
      0.0000000000       0.0000000000       7.1295811200
K Pr
3 1
direct
   0.7500000000000000    0.2500000000000000    0.5000000000000000 K
   0.2500000000000000    0.7500000000000000    0.5000000000000000 K
   0.5000000000000000    0.5000000000000000    0.0000000000000000 K
   0.0000000000000000    0.0000000000000000    0.0000000000000000 Pr
