K3 Pr1
1.0
      4.0633682082       0.0000000000      -4.3345465309
     -0.6353628662       4.0133870014      -4.3345465309
      0.0000000000       0.0000000000       5.9413176000
K Pr
3 1
direct
   0.7500000000000000    0.2500000000000000    0.5000000000000000 K
   0.2500000000000000    0.7500000000000000    0.5000000000000000 K
   0.5000000000000000    0.5000000000000000    0.0000000000000000 K
   0.0000000000000000    0.0000000000000000    0.0000000000000000 Pr
