K3 Pr1
1.0
      4.6051506359       0.0000000000      -4.9124860684
     -0.7200779151       4.5485052683      -4.9124860684
      0.0000000000       0.0000000000       6.7334932800
K Pr
3 1
direct
   0.7500000000000000    0.2500000000000000    0.5000000000000000 K
   0.2500000000000000    0.7500000000000000    0.5000000000000000 K
   0.5000000000000000    0.5000000000000000    0.0000000000000000 K
   0.0000000000000000    0.0000000000000000    0.0000000000000000 Pr
