K3 Pr1
1.0
      5.1469330637       0.0000000000      -5.4904256059
     -0.8047929639       5.0836235352      -5.4904256059
      0.0000000000       0.0000000000       7.5256689600
K Pr
3 1
direct
   0.7500000000000000    0.2500000000000000    0.5000000000000000 K
   0.2500000000000000    0.7500000000000000    0.5000000000000000 K
   0.5000000000000000    0.5000000000000000    0.0000000000000000 K
   0.0000000000000000    0.0000000000000000    0.0000000000000000 Pr
