K3 Pr1
1.0
      4.3342594221       0.0000000000      -4.6235162997
     -0.6777203907       4.2809461349      -4.6235162997
      0.0000000000       0.0000000000       6.3374054400
K Pr
3 1
direct
   0.7500000000000000    0.2500000000000000    0.5000000000000000 K
   0.2500000000000000    0.7500000000000000    0.5000000000000000 K
   0.5000000000000000    0.5000000000000000    0.0000000000000000 K
   0.0000000000000000    0.0000000000000000    0.0000000000000000 Pr
