Ti16 Cu8
1.0
      5.6110255782       0.0000000000       3.2395271280
      1.8703418594       5.2901256477       3.2395271280
      0.0000000000       0.0000000000       6.4790542560
Ti Cu
16 8
direct
   0.1250000000000000    0.6250000000000000    0.6250000000000000 Ti
   0.6250000000000000    0.1250000000000000    0.6250000000000000 Ti
   0.6250000000000000    0.6250000000000000    0.1250000000000000 Ti
   0.6250000000000000    0.6250000000000000    0.6250000000000000 Ti
   0.8163460000000000    0.8163460000000000    0.1836540000000000 Ti
   0.1836540000000000    0.1836540000000000    0.8163460000000000 Ti
   0.8163460000000000    0.1836540000000000    0.8163460000000000 Ti
   0.1836540000000000    0.8163460000000000    0.1836540000000000 Ti
   0.1836540000000000    0.8163460000000000    0.8163460000000000 Ti
   0.8163460000000000    0.1836540000000000    0.1836540000000000 Ti
   0.4336540000000000    0.4336540000000000    0.0663460000000000 Ti
   0.0663460000000000    0.0663460000000000    0.4336540000000000 Ti
   0.4336540000000000    0.0663460000000000    0.4336540000000000 Ti
   0.0663460000000000    0.4336540000000000    0.0663460000000000 Ti
   0.0663460000000000    0.4336540000000000    0.4336540000000000 Ti
   0.4336540000000000    0.0663460000000000    0.0663460000000000 Ti
   0.7573020000000000    0.4142330000000000    0.4142330000000000 Cu
   0.4142330000000000    0.7573020000000000    0.4142330000000000 Cu
   0.4142330000000000    0.4142330000000000    0.7573020000000000 Cu
   0.4142330000000000    0.4142330000000000    0.4142330000000000 Cu
   0.4926980000000000    0.8357670000000000    0.8357670000000000 Cu
   0.8357670000000000    0.4926980000000000    0.8357670000000000 Cu
   0.8357670000000000    0.8357670000000000    0.4926980000000000 Cu
   0.8357670000000000    0.8357670000000000    0.8357670000000000 Cu
