Th1 Zn2
1.0
      3.8413869120       0.0000000000       0.0000000000
     -1.9206938889       3.3267379894       0.0000000000
      0.0000000000       0.0000000000       3.0920675675
Th Zn
1 2
direct
   0.0000000000000000    0.0000000000000000    0.0000000000000000 Th
   0.6666666666666666    0.3333333333333333    0.5000000000000000 Zn
   0.3333333333333333    0.6666666666666666    0.5000000000000000 Zn
