Li2 C1
1.0
      2.8612481126       0.0000000000       1.6519423680
      0.9537493709       2.6976105907       1.6519423680
      0.0000000000       0.0000000000       3.3038847360
Li C
2 1
direct
   0.2500000000000000    0.2500000000000000    0.2500000000000000 Li
   0.7500000000000000    0.7500000000000000    0.7500000000000000 Li
   0.0000000000000000    0.0000000000000000    0.0000000000000000 C
