Li2 C1
1.0
      3.0202063410       0.0000000000       1.7437169440
      1.0067354470       2.8474778458       1.7437169440
      0.0000000000       0.0000000000       3.4874338880
Li C
2 1
direct
   0.2500000000000000    0.2500000000000000    0.2500000000000000 Li
   0.7500000000000000    0.7500000000000000    0.7500000000000000 Li
   0.0000000000000000    0.0000000000000000    0.0000000000000000 C
