K1 Cl3
1.0
      2.9591390424       0.0000000000      -4.9204247398
     -0.2279338623       2.9503474417      -4.9204247398
      0.0000000000       0.0000000000       5.7416969175
K Cl
1 3
direct
   0.0000000000000000    0.0000000000000000    0.0000000000000000 K
   0.7500000000000000    0.2500000000000000    0.5000000000000000 Cl
   0.2500000000000000    0.7500000000000000    0.5000000000000000 Cl
   0.5000000000000000    0.5000000000000000    0.0000000000000000 Cl
