K1 Cl3
1.0
      3.3536909147       0.0000000000      -5.5764813718
     -0.2583250439       3.3437271006      -5.5764813718
      0.0000000000       0.0000000000       6.5072565065
K Cl
1 3
direct
   0.0000000000000000    0.0000000000000000    0.0000000000000000 K
   0.7500000000000000    0.2500000000000000    0.5000000000000000 Cl
   0.2500000000000000    0.7500000000000000    0.5000000000000000 Cl
   0.5000000000000000    0.5000000000000000    0.0000000000000000 Cl
