K1 Cl3
1.0
      3.7482427870       0.0000000000      -6.2325380038
     -0.2887162255       3.7371067595      -6.2325380038
      0.0000000000       0.0000000000       7.2728160955
K Cl
1 3
direct
   0.0000000000000000    0.0000000000000000    0.0000000000000000 K
   0.7500000000000000    0.2500000000000000    0.5000000000000000 Cl
   0.2500000000000000    0.7500000000000000    0.5000000000000000 Cl
   0.5000000000000000    0.5000000000000000    0.0000000000000000 Cl
