K1 Cl3
1.0
      3.5509668509       0.0000000000      -5.9045096878
     -0.2735206347       3.5404169300      -5.9045096878
      0.0000000000       0.0000000000       6.8900363010
K Cl
1 3
direct
   0.0000000000000000    0.0000000000000000    0.0000000000000000 K
   0.7500000000000000    0.2500000000000000    0.5000000000000000 Cl
   0.2500000000000000    0.7500000000000000    0.5000000000000000 Cl
   0.5000000000000000    0.5000000000000000    0.0000000000000000 Cl
