K1 Cl3
1.0
      3.1564149785       0.0000000000      -5.2484530558
     -0.2431294531       3.1470372711      -5.2484530558
      0.0000000000       0.0000000000       6.1244767120
K Cl
1 3
direct
   0.0000000000000000    0.0000000000000000    0.0000000000000000 K
   0.7500000000000000    0.2500000000000000    0.5000000000000000 Cl
   0.2500000000000000    0.7500000000000000    0.5000000000000000 Cl
   0.5000000000000000    0.5000000000000000    0.0000000000000000 Cl
