Mn5 O8
1.0
      3.7188774540       0.0000000000      -1.1535946898
     -0.6902436144       3.9510770820      -2.2223700093
      0.0000000000       0.0000000000       4.7270378240
Mn O
5 8
direct
   0.3387063800000000    0.2772814500000000    0.5545701500000000 Mn
   0.6612922400000000    0.7227193900000000    0.4454293900000000 Mn
   0.0000380900000000    0.2597901000000000    0.9999534800000000 Mn
   0.9999644200000000    0.7402091300000000    0.0000464000000000 Mn
   0.4999999200000000    0.9999985900000000    0.9999997300000000 Mn
   0.0698950600000000    0.3947214200000000    0.7891736800000000 O
   0.9301005900000000    0.6052794300000000    0.2108234800000000 O
   0.0879132500000000    0.8958760300000000    0.7915628800000000 O
   0.9120892800000000    0.1041278800000000    0.2084380400000000 O
   0.3989115500000000    0.3387282800000000    0.2224661600000000 O
   0.3988419700000000    0.8835930300000000    0.2224329000000000 O
   0.6010880300000000    0.6612701600000001    0.7775349100000000 O
   0.6011602300000000    0.1164051100000000    0.7775687999999999 O
