Na2 Zn26
1.0
      5.5442734600       0.0000000000       3.2009877462
      1.8480914019       5.2271910882       3.2009877439
      0.0000000000       0.0000000000       6.4019754900
Na Zn
2 26
direct
   0.2500000000000000    0.2500000000000000    0.2500000000000000 Na
   0.7500000000000000    0.7500000000000000    0.7500000000000000 Na
   0.2001030900000000    0.7998969100000000    0.4388345800000000 Zn
   0.7001030900000000    0.0611654200000000    0.9388345800000000 Zn
   0.9388345800000000    0.2998969100000000    0.7001030900000000 Zn
   0.7001030900000000    0.9388345800000000    0.2998969100000000 Zn
   0.0611654200000000    0.2998969100000000    0.9388345800000000 Zn
   0.0611654200000000    0.9388345800000000    0.7001030900000000 Zn
   0.9388345800000000    0.0611654200000000    0.2998969100000000 Zn
   0.4388345800000000    0.2001030900000000    0.7998969100000000 Zn
   0.7998969100000000    0.4388345800000000    0.2001030900000000 Zn
   0.5611654200000000    0.2001030900000000    0.4388345800000000 Zn
   0.7998969100000000    0.5611654200000000    0.4388345800000000 Zn
   0.5611654200000000    0.7998969100000000    0.2001030900000000 Zn
   0.4388345800000000    0.7998969100000000    0.5611654200000000 Zn
   0.2001030900000000    0.4388345800000000    0.5611654200000000 Zn
   0.2001030900000000    0.5611654200000000    0.7998969100000000 Zn
   0.9388345800000000    0.7001030900000000    0.0611654200000000 Zn
   0.2998969100000000    0.9388345800000000    0.0611654200000000 Zn
   0.2998969100000000    0.7001030900000000    0.9388345800000000 Zn
   0.7001030900000000    0.2998969100000000    0.0611654200000000 Zn
   0.0611654200000000    0.7001030900000000    0.2998969100000000 Zn
   0.2998969100000000    0.0611654200000000    0.7001030900000000 Zn
   0.4388345800000000    0.5611654200000000    0.2001030900000000 Zn
   0.5611654200000000    0.4388345800000000    0.7998969100000000 Zn
   0.7998969100000000    0.2001030900000000    0.5611654200000000 Zn
   0.0000000000000000    0.0000000000000000    0.0000000000000000 Zn
   0.5000000000000000    0.5000000000000000    0.5000000000000000 Zn
