Li2 Si6
1.0
      5.1423453355       0.0000000000       0.0000000000
     -2.5711718065       4.4534021928       0.0000000000
      0.0000000000       0.0000000000       4.3800671500
Li Si
2 6
direct
   0.6666666666666666    0.3333333333333333    0.2500000000000000 Li
   0.3333333333333333    0.6666666666666666    0.7500000000000000 Li
   0.8425170000000000    0.1574830000000000    0.7500000000000000 Si
   0.3149650000000000    0.1574830000000000    0.7500000000000000 Si
   0.8425170000000000    0.6850349999999999    0.7500000000000000 Si
   0.1574830000000000    0.8425170000000000    0.2500000000000000 Si
   0.6850349999999999    0.8425170000000000    0.2500000000000000 Si
   0.1574830000000000    0.3149650000000000    0.2500000000000000 Si
