Li2 Si6
1.0
      4.8716955810       0.0000000000       0.0000000000
     -2.4358469746       4.2190126037       0.0000000000
      0.0000000000       0.0000000000       4.1495373000
Li Si
2 6
direct
   0.6666666666666666    0.3333333333333333    0.2500000000000000 Li
   0.3333333333333333    0.6666666666666666    0.7500000000000000 Li
   0.8425170000000000    0.1574830000000000    0.7500000000000000 Si
   0.3149650000000000    0.1574830000000000    0.7500000000000000 Si
   0.8425170000000000    0.6850349999999999    0.7500000000000000 Si
   0.1574830000000000    0.8425170000000000    0.2500000000000000 Si
   0.6850349999999999    0.8425170000000000    0.2500000000000000 Si
   0.1574830000000000    0.3149650000000000    0.2500000000000000 Si
