K3 Sm1
1.0
      4.1003702735       0.0000000000      -4.1772276173
     -0.6851934392       4.0427152176      -4.1772276173
      0.0000000000       0.0000000000       5.8533978975
K Sm
3 1
direct
   0.7500000000000000    0.2500000000000000    0.5000000000000000 K
   0.2500000000000000    0.7500000000000000    0.5000000000000000 K
   0.5000000000000000    0.5000000000000000    0.0000000000000000 K
   0.0000000000000000    0.0000000000000000    0.0000000000000000 Sm
