K3 Sm1
1.0
      4.9204443281       0.0000000000      -5.0126731408
     -0.8222321271       4.8512582611      -5.0126731408
      0.0000000000       0.0000000000       7.0240774770
K Sm
3 1
direct
   0.7500000000000000    0.2500000000000000    0.5000000000000000 K
   0.2500000000000000    0.7500000000000000    0.5000000000000000 K
   0.5000000000000000    0.5000000000000000    0.0000000000000000 K
   0.0000000000000000    0.0000000000000000    0.0000000000000000 Sm
