K3 Sm1
1.0
      5.1938023464       0.0000000000      -5.2911549820
     -0.8679116897       5.1207726089      -5.2911549820
      0.0000000000       0.0000000000       7.4143040035
K Sm
3 1
direct
   0.7500000000000000    0.2500000000000000    0.5000000000000000 K
   0.2500000000000000    0.7500000000000000    0.5000000000000000 K
   0.5000000000000000    0.5000000000000000    0.0000000000000000 K
   0.0000000000000000    0.0000000000000000    0.0000000000000000 Sm
