K3 Sm1
1.0
      4.6470863099       0.0000000000      -4.7341912996
     -0.7765525645       4.5817439132      -4.7341912996
      0.0000000000       0.0000000000       6.6338509505
K Sm
3 1
direct
   0.7500000000000000    0.2500000000000000    0.5000000000000000 K
   0.2500000000000000    0.7500000000000000    0.5000000000000000 K
   0.5000000000000000    0.5000000000000000    0.0000000000000000 K
   0.0000000000000000    0.0000000000000000    0.0000000000000000 Sm
