K3 Sm1
1.0
      4.3737282917       0.0000000000      -4.4557094585
     -0.7308730018       4.3122295654      -4.4557094585
      0.0000000000       0.0000000000       6.2436244240
K Sm
3 1
direct
   0.7500000000000000    0.2500000000000000    0.5000000000000000 K
   0.2500000000000000    0.7500000000000000    0.5000000000000000 K
   0.5000000000000000    0.5000000000000000    0.0000000000000000 K
   0.0000000000000000    0.0000000000000000    0.0000000000000000 Sm
