Li2 Hg6
1.0
      5.2211496720       0.0000000000       0.0000000000
     -2.6105870872       4.5216411797       0.0000000000
      0.0000000000       0.0000000000       3.7683700000
Li Hg
2 6
direct
   0.3333333333333333    0.6666666666666666    0.2500000000000000 Li
   0.6666666666666666    0.3333333333333333    0.7500000000000000 Li
   0.8281011000000000    0.1718989000000000    0.2500000000000000 Hg
   0.8281011000000000    0.6562022000000000    0.2500000000000000 Hg
   0.3437978000000000    0.1718989000000000    0.2500000000000000 Hg
   0.1718989000000000    0.8281011000000000    0.7500000000000000 Hg
   0.1718989000000000    0.3437978000000000    0.7500000000000000 Hg
   0.6562022000000000    0.8281011000000000    0.7500000000000000 Hg
