Mn4 Ge2
1.0
      3.1401113400       0.0000000000       0.0000000000
     -1.5700550093       2.7194165726       0.0000000000
      0.0000000000       0.0000000000       3.8295660000
Mn Ge
4 2
direct
   0.0000000000000000    0.0000000000000000    0.0000000000000000 Mn
   0.0000000000000000    0.0000000000000000    0.5000000000000000 Mn
   0.3333333333333333    0.6666666666666666    0.7500000000000000 Mn
   0.6666666666666666    0.3333333333333333    0.2500000000000000 Mn
   0.3333333333333333    0.6666666666666666    0.2500000000000000 Ge
   0.6666666666666666    0.3333333333333333    0.7500000000000000 Ge
