Mn4 Ge2
1.0
      3.7681336080       0.0000000000       0.0000000000
     -1.8840660112       3.2632998871       0.0000000000
      0.0000000000       0.0000000000       4.5954792000
Mn Ge
4 2
direct
   0.0000000000000000    0.0000000000000000    0.0000000000000000 Mn
   0.0000000000000000    0.0000000000000000    0.5000000000000000 Mn
   0.3333333333333333    0.6666666666666666    0.7500000000000000 Mn
   0.6666666666666666    0.3333333333333333    0.2500000000000000 Mn
   0.3333333333333333    0.6666666666666666    0.2500000000000000 Ge
   0.6666666666666666    0.3333333333333333    0.7500000000000000 Ge
