Tb1 Zn1
1.0
      3.3844372630       0.0000000000       0.0000000000
     -0.0000000000       3.3844372630       0.0000000000
      0.0000000000       0.0000000000       3.3844372630
Tb Zn
1 1
direct
   0.0000000000000000    0.0000000000000000    0.0000000000000000 Tb
   0.5000000000000000    0.5000000000000000    0.5000000000000000 Zn
