Tb1 Zn1
1.0
      2.8500524320       0.0000000000       0.0000000000
     -0.0000000000       2.8500524320       0.0000000000
      0.0000000000       0.0000000000       2.8500524320
Tb Zn
1 1
direct
   0.0000000000000000    0.0000000000000000    0.0000000000000000 Tb
   0.5000000000000000    0.5000000000000000    0.5000000000000000 Zn
