Ca1 Zn5
1.0
      3.9802622025       0.0000000000       0.0000000000
     -1.9901307231       3.4470089710       0.0000000000
      0.0000000000       0.0000000000       3.1458398475
Ca Zn
1 5
direct
   0.0000000000000000    0.0000000000000000    0.0000000000000000 Ca
   0.5000000000000000    0.0000000000000000    0.5000000000000000 Zn
   0.5000000000000000    0.5000000000000000    0.5000000000000000 Zn
   0.0000000000000000    0.5000000000000000    0.5000000000000000 Zn
   0.3333333333333333    0.6666666666666666    0.0000000000000000 Zn
   0.6666666666666666    0.3333333333333333    0.0000000000000000 Zn
