Li3 Cd1
1.0
      3.4775756059       0.0000000000      -2.8335751868
     -0.7850151459       3.3878139434      -2.8335751868
      0.0000000000       0.0000000000       4.4858310750
Li Cd
3 1
direct
   0.7500000000000000    0.2500000000000000    0.5000000000000000 Li
   0.2500000000000000    0.7500000000000000    0.5000000000000000 Li
   0.5000000000000000    0.5000000000000000    0.0000000000000000 Li
   0.0000000000000000    0.0000000000000000    0.0000000000000000 Cd
