Li3 Cd1
1.0
      3.2843769611       0.0000000000      -2.6761543430
     -0.7414031934       3.1996020577      -2.6761543430
      0.0000000000       0.0000000000       4.2366182375
Li Cd
3 1
direct
   0.7500000000000000    0.2500000000000000    0.5000000000000000 Li
   0.2500000000000000    0.7500000000000000    0.5000000000000000 Li
   0.5000000000000000    0.5000000000000000    0.0000000000000000 Li
   0.0000000000000000    0.0000000000000000    0.0000000000000000 Cd
