Mg2 Cl4
1.0
      5.5822356957       0.0000000000       2.4890000816
      0.3191378023       5.7623832484       2.7077287752
      0.0000000000       0.0000000000       6.4127356020
Mg Cl
2 4
direct
   0.4991440000000000    0.8660200000000000    0.8636450000000000 Mg
   0.5008560000000000    0.1339800000000000    0.1363550000000000 Mg
   0.7799170000000000    0.9839450000000000    0.8979440000000000 Cl
   0.2200830000000000    0.0160550000000000    0.1020560000000000 Cl
   0.5000000000000000    0.0000000000000000    0.5000000000000000 Cl
   0.5000000000000000    0.5000000000000000    0.0000000000000000 Cl
