Mg2 Cl4
1.0
      4.6518630797       0.0000000000       2.0741667346
      0.2659481686       4.8019860403       2.2564406460
      0.0000000000       0.0000000000       5.3439463350
Mg Cl
2 4
direct
   0.4991440000000000    0.8660200000000000    0.8636450000000000 Mg
   0.5008560000000000    0.1339800000000000    0.1363550000000000 Mg
   0.7799170000000000    0.9839450000000000    0.8979440000000000 Cl
   0.2200830000000000    0.0160550000000000    0.1020560000000000 Cl
   0.5000000000000000    0.0000000000000000    0.5000000000000000 Cl
   0.5000000000000000    0.5000000000000000    0.0000000000000000 Cl
