Np3 Cu1
1.0
      3.1536181018       0.0000000000       1.8207422600
      1.0512060339       2.9732596601       1.8207422600
      0.0000000000       0.0000000000       3.6414845200
Np Cu
3 1
direct
   0.0000000000000000    0.0000000000000000    0.0000000000000000 Np
   0.5000010000000000    0.5000010000000000    0.5000010000000000 Np
   0.2500000000000000    0.2500000000000000    0.2500000000000000 Np
   0.7500000000000000    0.7500000000000000    0.7500000000000000 Cu
