Np3 Cu1
1.0
      2.9565169704       0.0000000000       1.7069458688
      0.9855056568       2.7874309313       1.7069458688
      0.0000000000       0.0000000000       3.4138917375
Np Cu
3 1
direct
   0.0000000000000000    0.0000000000000000    0.0000000000000000 Np
   0.5000010000000000    0.5000010000000000    0.5000010000000000 Np
   0.2500000000000000    0.2500000000000000    0.2500000000000000 Np
   0.7500000000000000    0.7500000000000000    0.7500000000000000 Cu
