Np3 Cu1
1.0
      3.5478203645       0.0000000000       2.0483350425
      1.1826067882       3.3449171176       2.0483350425
      0.0000000000       0.0000000000       4.0966700850
Np Cu
3 1
direct
   0.0000000000000000    0.0000000000000000    0.0000000000000000 Np
   0.5000010000000000    0.5000010000000000    0.5000010000000000 Np
   0.2500000000000000    0.2500000000000000    0.2500000000000000 Np
   0.7500000000000000    0.7500000000000000    0.7500000000000000 Cu
