Np3 Cu1
1.0
      3.3507192332       0.0000000000       1.9345386513
      1.1169064111       3.1590883888       1.9345386513
      0.0000000000       0.0000000000       3.8690773025
Np Cu
3 1
direct
   0.0000000000000000    0.0000000000000000    0.0000000000000000 Np
   0.5000010000000000    0.5000010000000000    0.5000010000000000 Np
   0.2500000000000000    0.2500000000000000    0.2500000000000000 Np
   0.7500000000000000    0.7500000000000000    0.7500000000000000 Cu
