Np3 Cu1
1.0
      3.7449214959       0.0000000000       2.1621314338
      1.2483071653       3.5307458463       2.1621314338
      0.0000000000       0.0000000000       4.3242628675
Np Cu
3 1
direct
   0.0000000000000000    0.0000000000000000    0.0000000000000000 Np
   0.5000010000000000    0.5000010000000000    0.5000010000000000 Np
   0.2500000000000000    0.2500000000000000    0.2500000000000000 Np
   0.7500000000000000    0.7500000000000000    0.7500000000000000 Cu
