Li3 In2
1.0
      4.0692163647       0.0000000000       3.3981488525
      1.5894658713       3.7459462828       3.3981487882
      0.0000000000       0.0000000000       5.3015020085
Li In
3 2
direct
   0.5956852300000000    0.5956852300000000    0.5956852300000000 Li
   0.4043147700000000    0.4043147700000000    0.4043147700000000 Li
   0.0000000000000000    0.0000000000000000    0.0000000000000000 Li
   0.2068938000000000    0.2068938000000000    0.2068938000000000 In
   0.7931062000000000    0.7931062000000000    0.7931062000000000 In
