Li3 In2
1.0
      3.8550470823       0.0000000000       3.2192989129
      1.5058097728       3.5487912153       3.2192988520
      0.0000000000       0.0000000000       5.0224755870
Li In
3 2
direct
   0.5956852300000000    0.5956852300000000    0.5956852300000000 Li
   0.4043147700000000    0.4043147700000000    0.4043147700000000 Li
   0.0000000000000000    0.0000000000000000    0.0000000000000000 Li
   0.2068938000000000    0.2068938000000000    0.2068938000000000 In
   0.7931062000000000    0.7931062000000000    0.7931062000000000 In
