Li1 S1
1.0
      2.3845757494       0.0000000000      -2.7686804664
     -0.3286997035       2.3618124417      -2.7686804664
      0.0000000000       0.0000000000       3.6540105405
Li S
1 1
direct
   0.5000000000000000    0.5000000000000000    0.0000000000000000 Li
   0.7500000000000000    0.2500000000000000    0.5000000000000000 S
