Cu4 O8
1.0
      4.0404137323       0.0000000000       2.3327339560
      1.3468045774       3.8093385986       2.3327339560
      0.0000000000       0.0000000000       4.6654679120
Cu O
4 8
direct
   0.1250000000000000    0.1250000000000000    0.1250000000000000 Cu
   0.1250000000000000    0.1250000000000000    0.6250000000000000 Cu
   0.1250000000000000    0.6250000000000000    0.1250000000000000 Cu
   0.6250000000000000    0.1250000000000000    0.1250000000000000 Cu
   0.9220770000000000    0.3593080000000000    0.3593080000000000 O
   0.3593080000000000    0.3593080000000000    0.3593080000000000 O
   0.3279230000000000    0.8906920000000000    0.8906920000000000 O
   0.8906920000000000    0.8906920000000000    0.3279230000000000 O
   0.8906920000000000    0.8906920000000000    0.8906920000000000 O
   0.8906920000000000    0.3279230000000000    0.8906920000000000 O
   0.3593080000000000    0.3593080000000000    0.9220770000000000 O
   0.3593080000000000    0.9220770000000000    0.3593080000000000 O
