Cu4 O8
1.0
      4.5454654489       0.0000000000       2.6243257005
      1.5151551496       4.2855059234       2.6243257005
      0.0000000000       0.0000000000       5.2486514010
Cu O
4 8
direct
   0.1250000000000000    0.1250000000000000    0.1250000000000000 Cu
   0.1250000000000000    0.1250000000000000    0.6250000000000000 Cu
   0.1250000000000000    0.6250000000000000    0.1250000000000000 Cu
   0.6250000000000000    0.1250000000000000    0.1250000000000000 Cu
   0.9220770000000000    0.3593080000000000    0.3593080000000000 O
   0.3593080000000000    0.3593080000000000    0.3593080000000000 O
   0.3279230000000000    0.8906920000000000    0.8906920000000000 O
   0.8906920000000000    0.8906920000000000    0.3279230000000000 O
   0.8906920000000000    0.8906920000000000    0.8906920000000000 O
   0.8906920000000000    0.3279230000000000    0.8906920000000000 O
   0.3593080000000000    0.3593080000000000    0.9220770000000000 O
   0.3593080000000000    0.9220770000000000    0.3593080000000000 O
