Cu4 O8
1.0
      3.7878878741       0.0000000000       2.1869380838
      1.2626292914       3.5712549362       2.1869380838
      0.0000000000       0.0000000000       4.3738761675
Cu O
4 8
direct
   0.1250000000000000    0.1250000000000000    0.1250000000000000 Cu
   0.1250000000000000    0.1250000000000000    0.6250000000000000 Cu
   0.1250000000000000    0.6250000000000000    0.1250000000000000 Cu
   0.6250000000000000    0.1250000000000000    0.1250000000000000 Cu
   0.9220770000000000    0.3593080000000000    0.3593080000000000 O
   0.3593080000000000    0.3593080000000000    0.3593080000000000 O
   0.3279230000000000    0.8906920000000000    0.8906920000000000 O
   0.8906920000000000    0.8906920000000000    0.3279230000000000 O
   0.8906920000000000    0.8906920000000000    0.8906920000000000 O
   0.8906920000000000    0.3279230000000000    0.8906920000000000 O
   0.3593080000000000    0.3593080000000000    0.9220770000000000 O
   0.3593080000000000    0.9220770000000000    0.3593080000000000 O
