Cu4 O8
1.0
      4.7979913071       0.0000000000       2.7701215728
      1.5993304357       4.5235895858       2.7701215728
      0.0000000000       0.0000000000       5.5402431455
Cu O
4 8
direct
   0.1250000000000000    0.1250000000000000    0.1250000000000000 Cu
   0.1250000000000000    0.1250000000000000    0.6250000000000000 Cu
   0.1250000000000000    0.6250000000000000    0.1250000000000000 Cu
   0.6250000000000000    0.1250000000000000    0.1250000000000000 Cu
   0.9220770000000000    0.3593080000000000    0.3593080000000000 O
   0.3593080000000000    0.3593080000000000    0.3593080000000000 O
   0.3279230000000000    0.8906920000000000    0.8906920000000000 O
   0.8906920000000000    0.8906920000000000    0.3279230000000000 O
   0.8906920000000000    0.8906920000000000    0.8906920000000000 O
   0.8906920000000000    0.3279230000000000    0.8906920000000000 O
   0.3593080000000000    0.3593080000000000    0.9220770000000000 O
   0.3593080000000000    0.9220770000000000    0.3593080000000000 O
