Cu4 O8
1.0
      4.2929395906       0.0000000000       2.4785298283
      1.4309798635       4.0474222610       2.4785298283
      0.0000000000       0.0000000000       4.9570596565
Cu O
4 8
direct
   0.1250000000000000    0.1250000000000000    0.1250000000000000 Cu
   0.1250000000000000    0.1250000000000000    0.6250000000000000 Cu
   0.1250000000000000    0.6250000000000000    0.1250000000000000 Cu
   0.6250000000000000    0.1250000000000000    0.1250000000000000 Cu
   0.9220770000000000    0.3593080000000000    0.3593080000000000 O
   0.3593080000000000    0.3593080000000000    0.3593080000000000 O
   0.3279230000000000    0.8906920000000000    0.8906920000000000 O
   0.8906920000000000    0.8906920000000000    0.3279230000000000 O
   0.8906920000000000    0.8906920000000000    0.8906920000000000 O
   0.8906920000000000    0.3279230000000000    0.8906920000000000 O
   0.3593080000000000    0.3593080000000000    0.9220770000000000 O
   0.3593080000000000    0.9220770000000000    0.3593080000000000 O
