Mn2 Se2
1.0
      2.7099667500       0.0000000000       0.0000000000
     -0.0000000000       2.7099667500       0.0000000000
      0.0000000000       0.0000000000       4.6847670000
Mn Se
2 2
direct
   0.0000000000000000    0.0000000000000000    0.0000000000000000 Mn
   0.5000000000000000    0.5000000000000000    0.0000000000000000 Mn
   0.5000000000000000    0.0000000000000000    0.7503170000000000 Se
   0.0000000000000000    0.5000000000000000    0.2496830000000000 Se
