Mn2 Se2
1.0
      3.2519601000       0.0000000000       0.0000000000
     -0.0000000000       3.2519601000       0.0000000000
      0.0000000000       0.0000000000       5.6217204000
Mn Se
2 2
direct
   0.0000000000000000    0.0000000000000000    0.0000000000000000 Mn
   0.5000000000000000    0.5000000000000000    0.0000000000000000 Mn
   0.5000000000000000    0.0000000000000000    0.7503170000000000 Se
   0.0000000000000000    0.5000000000000000    0.2496830000000000 Se
