Ba2 Zn4
1.0
      3.6732479416       0.0000000000       1.7282558842
      1.7582841818       4.4337915319       1.1750902661
      0.0000000000       0.0000000000       4.9123645360
Ba Zn
2 4
direct
   0.7500010200000000    0.6870010600000001    0.8130004300000000 Ba
   0.2499989800000000    0.3129989400000000    0.1869995700000000 Ba
   0.5814208500000000    0.2626073800000000    0.5707433700000000 Zn
   0.4185791500000000    0.7373926200000001    0.4292566300000000 Zn
   0.0814214700000000    0.0707572500000000    0.7626128400000000 Zn
   0.9185785300000000    0.9292427500000000    0.2373871600000000 Zn
