Li1 O1
1.0
      1.9035907500       0.0000000000       0.0000000000
     -0.0000000000       1.9035907500       0.0000000000
      0.0000000000       0.0000000000       1.9035907500
Li O
1 1
direct
   0.5000000000000000    0.5000000000000000    0.5000000000000000 Li
   0.0000000000000000    0.0000000000000000    0.0000000000000000 O
