Mn1 Ni1
1.0
      2.1962371575       0.0000000000       0.0000000000
     -0.0000000000       2.1962371575       0.0000000000
      0.0000000000       0.0000000000       2.1668367750
Mn Ni
1 1
direct
   0.0000000000000000    0.0000000000000000    0.0000000000000000 Mn
   0.5000000000000000    0.5000000000000000    0.5000000000000000 Ni
