Mn1 Ni1
1.0
      2.4890687785       0.0000000000       0.0000000000
     -0.0000000000       2.4890687785       0.0000000000
      0.0000000000       0.0000000000       2.4557483450
Mn Ni
1 1
direct
   0.0000000000000000    0.0000000000000000    0.0000000000000000 Mn
   0.5000000000000000    0.5000000000000000    0.5000000000000000 Ni
