Zr2 Cu6
1.0
      4.2419007600       0.0000000000       0.0000000000
     -2.1209501408       3.6735939566       0.0000000000
      0.0000000000       0.0000000000       3.1827255000
Zr Cu
2 6
direct
   0.3333333333333333    0.6666666666666666    0.7500000000000000 Zr
   0.6666666666666666    0.3333333333333333    0.2500000000000000 Zr
   0.1512680000000000    0.3025360000000000    0.2500000000000000 Cu
   0.6974640000000000    0.8487320000000000    0.2500000000000000 Cu
   0.1512680000000000    0.8487320000000000    0.2500000000000000 Cu
   0.8487320000000000    0.6974640000000000    0.7500000000000000 Cu
   0.3025360000000000    0.1512680000000000    0.7500000000000000 Cu
   0.8487320000000000    0.1512680000000000    0.7500000000000000 Cu
