Er2 Zn17
1.0
      6.2918227617       0.0000000000       0.7884421581
      0.6958079604       6.2532313285       0.7884422391
      0.0000000000       0.0000000000       6.3410317185
Er Zn
2 17
direct
   0.6642813000000000    0.6642813000000000    0.6642813000000000 Er
   0.3357187000000000    0.3357187000000000    0.3357187000000000 Er
   0.3512250700000000    0.3512250700000000    0.8383242500000000 Zn
   0.3512250700000000    0.8383242500000000    0.3512250700000000 Zn
   0.0999284000000000    0.0999284000000000    0.0999284000000000 Zn
   0.9000716000000000    0.9000716000000000    0.9000716000000000 Zn
   0.0000000000000000    0.0000000000000000    0.5000000000000000 Zn
   0.5000000000000000    0.0000000000000000    0.0000000000000000 Zn
   0.0000000000000000    0.5000000000000000    0.0000000000000000 Zn
   0.7026797400000000    0.2973202600000000    0.0000000000000000 Zn
   0.0000000000000000    0.7026797400000000    0.2973202600000000 Zn
   0.2973202600000000    0.0000000000000000    0.7026797400000000 Zn
   0.2973202600000000    0.7026797400000000    0.0000000000000000 Zn
   0.0000000000000000    0.2973202600000000    0.7026797400000000 Zn
   0.7026797400000000    0.0000000000000000    0.2973202600000000 Zn
   0.6487749300000000    0.1616757500000000    0.6487749300000000 Zn
   0.6487749300000000    0.6487749300000000    0.1616757500000000 Zn
   0.1616757500000000    0.6487749300000000    0.6487749300000000 Zn
   0.8383242500000000    0.3512250700000000    0.3512250700000000 Zn
