Li3 Mg3
1.0
      5.0399929799       0.0000000000       1.4678166988
      4.2439172908       2.7185833196       1.4678166988
      0.0000000000       0.0000000000       6.6788662770
Li Mg
3 3
direct
   0.6115119999999999    0.6115119999999999    0.2770470000000000 Li
   0.3327650000000000    0.3327650000000000    0.3346270000000000 Li
   0.9458160000000000    0.9458160000000000    0.6084190000000000 Li
   0.9975039999999999    0.9975039999999999    0.0088750000000000 Mg
   0.6668210000000000    0.6668210000000000    0.6608800000000000 Mg
   0.2789140000000000    0.2789140000000000    0.9434840000000000 Mg
