K3 Nd1
1.0
      4.0541329646       0.0000000000      -4.2986635606
     -0.6395199177       4.0033746227      -4.2986635606
      0.0000000000       0.0000000000       5.9088495075
K Nd
3 1
direct
   0.7500000000000000    0.2500000000000000    0.5000000000000000 K
   0.2500000000000000    0.7500000000000000    0.5000000000000000 K
   0.5000000000000000    0.5000000000000000    0.0000000000000000 K
   0.0000000000000000    0.0000000000000000    0.0000000000000000 Nd
