K3 Nd1
1.0
      4.8649595576       0.0000000000      -5.1583962727
     -0.7674239012       4.8040495473      -5.1583962727
      0.0000000000       0.0000000000       7.0906194090
K Nd
3 1
direct
   0.7500000000000000    0.2500000000000000    0.5000000000000000 K
   0.2500000000000000    0.7500000000000000    0.5000000000000000 K
   0.5000000000000000    0.5000000000000000    0.0000000000000000 K
   0.0000000000000000    0.0000000000000000    0.0000000000000000 Nd
