K3 Nd1
1.0
      4.3244084956       0.0000000000      -4.5852411313
     -0.6821545788       4.2702662642      -4.5852411313
      0.0000000000       0.0000000000       6.3027728080
K Nd
3 1
direct
   0.7500000000000000    0.2500000000000000    0.5000000000000000 K
   0.2500000000000000    0.7500000000000000    0.5000000000000000 K
   0.5000000000000000    0.5000000000000000    0.0000000000000000 K
   0.0000000000000000    0.0000000000000000    0.0000000000000000 Nd
