K3 Nd1
1.0
      5.1352350885       0.0000000000      -5.4449738434
     -0.8100585624       5.0709411888      -5.4449738434
      0.0000000000       0.0000000000       7.4845427095
K Nd
3 1
direct
   0.7500000000000000    0.2500000000000000    0.5000000000000000 K
   0.2500000000000000    0.7500000000000000    0.5000000000000000 K
   0.5000000000000000    0.5000000000000000    0.0000000000000000 K
   0.0000000000000000    0.0000000000000000    0.0000000000000000 Nd
