K3 Nd1
1.0
      4.5946840266       0.0000000000      -4.8718187020
     -0.7247892400       4.5371579057      -4.8718187020
      0.0000000000       0.0000000000       6.6966961085
K Nd
3 1
direct
   0.7500000000000000    0.2500000000000000    0.5000000000000000 K
   0.2500000000000000    0.7500000000000000    0.5000000000000000 K
   0.5000000000000000    0.5000000000000000    0.0000000000000000 K
   0.0000000000000000    0.0000000000000000    0.0000000000000000 Nd
