K3 Be1
1.0
      4.1183816080       0.0000000000       2.3777487300
      1.3727938693       3.8828474167       2.3777487300
      0.0000000000       0.0000000000       4.7554974600
K Be
3 1
direct
   0.2500000000000000    0.2500000000000000    0.2500000000000000 K
   0.7500000000000000    0.7500000000000000    0.7500000000000000 K
   0.5000000000000000    0.5000000000000000    0.5000000000000000 K
   0.0000000000000000    0.0000000000000000    0.0000000000000000 Be
