K3 Be1
1.0
      5.2166167035       0.0000000000       3.0118150580
      1.7388722345       4.9182733945       3.0118150580
      0.0000000000       0.0000000000       6.0236301160
K Be
3 1
direct
   0.2500000000000000    0.2500000000000000    0.2500000000000000 K
   0.7500000000000000    0.7500000000000000    0.7500000000000000 K
   0.5000000000000000    0.5000000000000000    0.5000000000000000 K
   0.0000000000000000    0.0000000000000000    0.0000000000000000 Be
