K3 Be1
1.0
      4.3929403819       0.0000000000       2.5362653120
      1.4643134606       4.1417039111       2.5362653120
      0.0000000000       0.0000000000       5.0725306240
K Be
3 1
direct
   0.2500000000000000    0.2500000000000000    0.2500000000000000 K
   0.7500000000000000    0.7500000000000000    0.7500000000000000 K
   0.5000000000000000    0.5000000000000000    0.5000000000000000 K
   0.0000000000000000    0.0000000000000000    0.0000000000000000 Be
