K3 Be1
1.0
      4.9420579296       0.0000000000       2.8532984760
      1.6473526432       4.6594169000       2.8532984760
      0.0000000000       0.0000000000       5.7065969520
K Be
3 1
direct
   0.2500000000000000    0.2500000000000000    0.2500000000000000 K
   0.7500000000000000    0.7500000000000000    0.7500000000000000 K
   0.5000000000000000    0.5000000000000000    0.5000000000000000 K
   0.0000000000000000    0.0000000000000000    0.0000000000000000 Be
