K3 Be1
1.0
      4.6674991557       0.0000000000       2.6947818940
      1.5558330519       4.4005604056       2.6947818940
      0.0000000000       0.0000000000       5.3895637880
K Be
3 1
direct
   0.2500000000000000    0.2500000000000000    0.2500000000000000 K
   0.7500000000000000    0.7500000000000000    0.7500000000000000 K
   0.5000000000000000    0.5000000000000000    0.5000000000000000 K
   0.0000000000000000    0.0000000000000000    0.0000000000000000 Be
