Mn1 Pt2
1.0
      2.1438033375       0.0000000000       0.0000000000
     -1.0719020077       1.8565879553       0.0000000000
      0.0000000000       0.0000000000       4.8993780000
Mn Pt
1 2
direct
   0.0000000000000000    0.0000000000000000    0.0000000000000000 Mn
   0.3333333333333333    0.6666666666666666    0.6837940000000000 Pt
   0.6666666666666666    0.3333333333333333    0.3162060000000000 Pt
