Mn1 Pt2
1.0
      2.5725640050       0.0000000000       0.0000000000
     -1.2862824092       2.2279055464       0.0000000000
      0.0000000000       0.0000000000       5.8792536000
Mn Pt
1 2
direct
   0.0000000000000000    0.0000000000000000    0.0000000000000000 Mn
   0.3333333333333333    0.6666666666666666    0.6837940000000000 Pt
   0.6666666666666666    0.3333333333333333    0.3162060000000000 Pt
