Zn1 Se1
1.0
      2.7752158791       0.0000000000       1.6022715115
      0.9250719605       2.6164979853       1.6022715126
      0.0000000000       0.0000000000       3.2045430160
Zn Se
1 1
direct
   0.0000000000000000    0.0000000000000000    0.0000000000000000 Zn
   0.2500000000000000    0.2500000000000000    0.2500000000000000 Se
