Zn1 Se1
1.0
      2.9486668715       0.0000000000       1.7024134810
      0.9828889580       2.7800291094       1.7024134821
      0.0000000000       0.0000000000       3.4048269545
Zn Se
1 1
direct
   0.0000000000000000    0.0000000000000000    0.0000000000000000 Zn
   0.2500000000000000    0.2500000000000000    0.2500000000000000 Se
