Zn1 Se1
1.0
      3.2955688564       0.0000000000       1.9026974199
      1.0985229531       3.1070913576       1.9026974212
      0.0000000000       0.0000000000       3.8053948315
Zn Se
1 1
direct
   0.0000000000000000    0.0000000000000000    0.0000000000000000 Zn
   0.2500000000000000    0.2500000000000000    0.2500000000000000 Se
