Zn1 Se1
1.0
      3.1221178639       0.0000000000       1.8025554504
      1.0407059556       2.9435602335       1.8025554516
      0.0000000000       0.0000000000       3.6051108930
Zn Se
1 1
direct
   0.0000000000000000    0.0000000000000000    0.0000000000000000 Zn
   0.2500000000000000    0.2500000000000000    0.2500000000000000 Se
