Li4 Mg2
1.0
      3.5118354310       0.0000000000       1.8072565588
      1.2603293649       3.2778892578       1.8072565588
      0.0000000000       0.0000000000       4.4350561275
Li Mg
4 2
direct
   0.2500163000000000    0.4181597000000000    0.2466360200000000 Li
   0.5818403000000000    0.7499837000000000    0.2533639800000000 Li
   0.4181597000000000    0.2500163000000000    0.7466360200000000 Li
   0.7499837000000000    0.5818403000000000    0.7533639800000000 Li
   0.0887774500000000    0.9112225500000000    0.7500000000000000 Mg
   0.9112225500000000    0.0887774500000000    0.2500000000000000 Mg
