Li4 Mg2
1.0
      4.2142025172       0.0000000000       2.1687078706
      1.5123952379       3.9334671093       2.1687078706
      0.0000000000       0.0000000000       5.3220673530
Li Mg
4 2
direct
   0.2500163000000000    0.4181597000000000    0.2466360200000000 Li
   0.5818403000000000    0.7499837000000000    0.2533639800000000 Li
   0.4181597000000000    0.2500163000000000    0.7466360200000000 Li
   0.7499837000000000    0.5818403000000000    0.7533639800000000 Li
   0.0887774500000000    0.9112225500000000    0.7500000000000000 Mg
   0.9112225500000000    0.0887774500000000    0.2500000000000000 Mg
