Li4 Mg2
1.0
      4.4483248793       0.0000000000       2.2891916412
      1.5964171956       4.1519930599       2.2891916412
      0.0000000000       0.0000000000       5.6177377615
Li Mg
4 2
direct
   0.2500163000000000    0.4181597000000000    0.2466360200000000 Li
   0.5818403000000000    0.7499837000000000    0.2533639800000000 Li
   0.4181597000000000    0.2500163000000000    0.7466360200000000 Li
   0.7499837000000000    0.5818403000000000    0.7533639800000000 Li
   0.0887774500000000    0.9112225500000000    0.7500000000000000 Mg
   0.9112225500000000    0.0887774500000000    0.2500000000000000 Mg
