Mn2 N2
1.0
      2.3606103920       0.0000000000       0.0000000000
     -1.1803059910       2.0443481089       0.0000000000
      0.0000000000       0.0000000000       4.2233232000
Mn N
2 2
direct
   0.3333333333333333    0.6666666666666666    0.4877720000000000 Mn
   0.6666666666666666    0.3333333333333333    0.9877720000000000 Mn
   0.3333333333333333    0.6666666666666666    0.1342280000000000 N
   0.6666666666666666    0.3333333333333333    0.6342280000000000 N
