Li1 Cu3
1.0
      2.8739736320       0.0000000000       0.0000000000
     -0.0000000000       2.8739736320       0.0000000000
      0.0000000000       0.0000000000       2.8739736320
Li Cu
1 3
direct
   0.0000000000000000    0.0000000000000000    0.0000000000000000 Li
   0.5000000000000000    0.0000000000000000    0.5000000000000000 Cu
   0.0000000000000000    0.5000000000000000    0.5000000000000000 Cu
   0.5000000000000000    0.5000000000000000    0.0000000000000000 Cu
