Li1 Cu3
1.0
      3.0535969840       0.0000000000       0.0000000000
     -0.0000000000       3.0535969840       0.0000000000
      0.0000000000       0.0000000000       3.0535969840
Li Cu
1 3
direct
   0.0000000000000000    0.0000000000000000    0.0000000000000000 Li
   0.5000000000000000    0.0000000000000000    0.5000000000000000 Cu
   0.0000000000000000    0.5000000000000000    0.5000000000000000 Cu
   0.5000000000000000    0.5000000000000000    0.0000000000000000 Cu
