Tb1 Zn12
1.0
      5.9816714073       0.0000000000      -0.8669721812
     -4.4809237954       3.9625389292      -0.8669721812
      0.0000000000       0.0000000000       6.0441735240
Tb Zn
1 12
direct
   0.0000000000000000    0.0000000000000000    0.0000000000000000 Tb
   0.0000000000000000    0.0000000000000000    0.5000000000000000 Zn
   0.5000000000000000    0.5000000000000000    0.5000000000000000 Zn
   0.5000000000000000    0.0000000000000000    0.0000000000000000 Zn
   0.0000000000000000    0.5000000000000000    0.0000000000000000 Zn
   0.0000000000000000    0.3541767000000000    0.3541767000000000 Zn
   0.0000000000000000    0.6458233000000000    0.6458233000000000 Zn
   0.6458233000000000    0.0000000000000000    0.6458233000000000 Zn
   0.3541767000000000    0.0000000000000000    0.3541767000000000 Zn
   0.5000000000000000    0.2826983100000000    0.7826983100000000 Zn
   0.5000000000000000    0.7173016900000000    0.2173016900000000 Zn
   0.7173016900000000    0.5000000000000000    0.2173016900000000 Zn
   0.2826983100000000    0.5000000000000000    0.7826983100000000 Zn
