Cu1 O2
1.0
      4.2673623615       0.0000000000       4.0154070148
      3.7998109312       1.9421169922       0.2484444750
      0.0000000000       0.0000000000       4.2638514900
Cu O
1 2
direct
   0.5000000000000000    0.5000000000000000    0.5000000000000000 Cu
   0.1059880000000000    0.8940120000000000    0.1059880000000000 O
   0.8940120000000000    0.1059880000000000    0.8940120000000000 O
