Cu1 O2
1.0
      4.8363440097       0.0000000000       4.5507946168
      4.3064523887       2.2010659245       0.2815704050
      0.0000000000       0.0000000000       4.8323650220
Cu O
1 2
direct
   0.5000000000000000    0.5000000000000000    0.5000000000000000 Cu
   0.1059880000000000    0.8940120000000000    0.1059880000000000 O
   0.8940120000000000    0.1059880000000000    0.8940120000000000 O
