Cu1 O2
1.0
      4.5518531856       0.0000000000       4.2831008158
      4.0531316600       2.0715914584       0.2650074400
      0.0000000000       0.0000000000       4.5481082560
Cu O
1 2
direct
   0.5000000000000000    0.5000000000000000    0.5000000000000000 Cu
   0.1059880000000000    0.8940120000000000    0.1059880000000000 O
   0.8940120000000000    0.1059880000000000    0.8940120000000000 O
