Cu1 O2
1.0
      5.1208348338       0.0000000000       4.8184884178
      4.5597731175       2.3305403906       0.2981333700
      0.0000000000       0.0000000000       5.1166217880
Cu O
1 2
direct
   0.5000000000000000    0.5000000000000000    0.5000000000000000 Cu
   0.1059880000000000    0.8940120000000000    0.1059880000000000 O
   0.8940120000000000    0.1059880000000000    0.8940120000000000 O
