Cu1 O2
1.0
      5.4053256578       0.0000000000       5.0861822188
      4.8130938462       2.4600148568       0.3146963350
      0.0000000000       0.0000000000       5.4008785540
Cu O
1 2
direct
   0.5000000000000000    0.5000000000000000    0.5000000000000000 Cu
   0.1059880000000000    0.8940120000000000    0.1059880000000000 O
   0.8940120000000000    0.1059880000000000    0.8940120000000000 O
