Li8 Ge8
1.0
      4.5056449865       0.0000000000       1.8804002155
      2.2528219624       5.8492461825       0.9402002038
      0.0000000000       0.0000000000       6.3382055570
Li Ge
8 8
direct
   0.4598120000000000    0.1936343900000000    0.5344518300000000 Li
   0.9942638300000000    0.9655481700000000    0.1936343900000000 Li
   0.1534453800000000    0.5344518300000000    0.3063656100000000 Li
   0.1878972200000000    0.3063656100000000    0.9655481700000000 Li
   0.5401880000000000    0.8063656100000000    0.4655481700000000 Li
   0.0057361700000000    0.0344518300000000    0.8063656100000000 Li
   0.8465546200000000    0.4655481700000000    0.6936343900000000 Li
   0.8121027800000000    0.6936343900000000    0.0344518300000000 Li
   0.0576556100000000    0.1591466700000000    0.4446375500000000 Ge
   0.5022941700000000    0.0553624500000000    0.1591466700000000 Ge
   0.7168042900000000    0.4446375500000000    0.3408533300000000 Ge
   0.6614418399999999    0.3408533300000000    0.0553624500000000 Ge
   0.9423443900000000    0.8408533300000000    0.5553624500000000 Ge
   0.4977058300000000    0.9446375500000000    0.8408533300000000 Ge
   0.2831957100000000    0.5553624500000000    0.6591466700000000 Ge
   0.3385581600000000    0.6591466700000000    0.9446375500000000 Ge
