Mg2 F4
1.0
      5.1351600656       0.0000000000      -1.8725657487
     -0.8859979574       3.3842657303      -4.1997767165
      0.0000000000       0.0000000000       5.4659282270
Mg F
2 4
direct
   0.8545080000000000    0.6045080000000000    0.2500000000000000 Mg
   0.1454920000000000    0.3954920000000000    0.7500000000000000 Mg
   0.0908800000000000    0.8408800000000000    0.2500000000000000 F
   0.5000000000000000    0.5000000000000000    0.0000000000000000 F
   0.9091200000000000    0.1591200000000000    0.7500000000000000 F
   0.0000000000000000    0.5000000000000000    0.5000000000000000 F
