Mg2 F4
1.0
      4.0540737360       0.0000000000      -1.4783413805
     -0.6994720716       2.6717887345      -3.3156131973
      0.0000000000       0.0000000000       4.3152064950
Mg F
2 4
direct
   0.8545080000000000    0.6045080000000000    0.2500000000000000 Mg
   0.1454920000000000    0.3954920000000000    0.7500000000000000 Mg
   0.0908800000000000    0.8408800000000000    0.2500000000000000 F
   0.5000000000000000    0.5000000000000000    0.0000000000000000 F
   0.9091200000000000    0.1591200000000000    0.7500000000000000 F
   0.0000000000000000    0.5000000000000000    0.5000000000000000 F
