Li1 Si3
1.0
      2.7632452098       0.0000000000      -2.6890404995
     -0.4925754009       2.7189875991      -2.6890404995
      0.0000000000       0.0000000000       3.8557052400
Li Si
1 3
direct
   0.0000000000000000    0.0000000000000000    0.0000000000000000 Li
   0.7500000000000000    0.2500000000000000    0.5000000000000000 Si
   0.2500000000000000    0.7500000000000000    0.5000000000000000 Si
   0.5000000000000000    0.5000000000000000    0.0000000000000000 Si
