Li1 Si3
1.0
      3.2813536867       0.0000000000      -3.1932355932
     -0.5849332886       3.2287977739      -3.1932355932
      0.0000000000       0.0000000000       4.5786499725
Li Si
1 3
direct
   0.0000000000000000    0.0000000000000000    0.0000000000000000 Li
   0.7500000000000000    0.2500000000000000    0.5000000000000000 Si
   0.2500000000000000    0.7500000000000000    0.5000000000000000 Si
   0.5000000000000000    0.5000000000000000    0.0000000000000000 Si
