Mg2 Ge1
1.0
      3.7049522120       0.0000000000       2.1390547302
      1.2349843912       3.4930634243       2.1390547305
      0.0000000000       0.0000000000       4.2781104235
Mg Ge
2 1
direct
   0.7500000000000000    0.7500000000000000    0.7500000000000000 Mg
   0.2500000000000000    0.2500000000000000    0.2500000000000000 Mg
   0.0000000000000000    0.0000000000000000    0.0000000000000000 Ge
