Mg2 Ge1
1.0
      3.5099547272       0.0000000000       2.0264729023
      1.1699852127       3.3092179809       2.0264729026
      0.0000000000       0.0000000000       4.0529467170
Mg Ge
2 1
direct
   0.7500000000000000    0.7500000000000000    0.7500000000000000 Mg
   0.2500000000000000    0.2500000000000000    0.2500000000000000 Mg
   0.0000000000000000    0.0000000000000000    0.0000000000000000 Ge
