Mg2 Ge1
1.0
      3.3149572423       0.0000000000       1.9138910744
      1.1049860342       3.1253725375       1.9138910746
      0.0000000000       0.0000000000       3.8277830105
Mg Ge
2 1
direct
   0.7500000000000000    0.7500000000000000    0.7500000000000000 Mg
   0.2500000000000000    0.2500000000000000    0.2500000000000000 Mg
   0.0000000000000000    0.0000000000000000    0.0000000000000000 Ge
