Mg2 Ge1
1.0
      2.9249622726       0.0000000000       1.6887274186
      0.9749876772       2.7576816508       1.6887274188
      0.0000000000       0.0000000000       3.3774555975
Mg Ge
2 1
direct
   0.7500000000000000    0.7500000000000000    0.7500000000000000 Mg
   0.2500000000000000    0.2500000000000000    0.2500000000000000 Mg
   0.0000000000000000    0.0000000000000000    0.0000000000000000 Ge
