Mg2 Ge1
1.0
      3.1199597575       0.0000000000       1.8013092465
      1.0399868557       2.9415270942       1.8013092467
      0.0000000000       0.0000000000       3.6026193040
Mg Ge
2 1
direct
   0.7500000000000000    0.7500000000000000    0.7500000000000000 Mg
   0.2500000000000000    0.2500000000000000    0.2500000000000000 Mg
   0.0000000000000000    0.0000000000000000    0.0000000000000000 Ge
