Li2 B2
1.0
      2.3639692381       0.0000000000       1.3648382760
      0.7879897460       2.2287715717       1.3648382760
      0.0000000000       0.0000000000       2.7296765520
Li B
2 2
direct
   0.5000000000000000    0.5000000000000000    0.5000000000000000 Li
   0.7500000000000000    0.7500000000000000    0.7500000000000000 Li
   0.2500000000000000    0.2500000000000000    0.2500000000000000 B
   0.0000000000000000    0.0000000000000000    0.0000000000000000 B
