Li2 B2
1.0
      2.5117173155       0.0000000000       1.4501406683
      0.8372391052       2.3680697950       1.4501406683
      0.0000000000       0.0000000000       2.9002813365
Li B
2 2
direct
   0.5000000000000000    0.5000000000000000    0.5000000000000000 Li
   0.7500000000000000    0.7500000000000000    0.7500000000000000 Li
   0.2500000000000000    0.2500000000000000    0.2500000000000000 B
   0.0000000000000000    0.0000000000000000    0.0000000000000000 B
