Mg3 Cu1
1.0
      2.4450976000       0.0000000000       0.0000000000
     -0.0000000000       3.8067304000       0.0000000000
      0.0000000000       0.0000000000       4.1493184000
Mg Cu
3 1
direct
   0.0000000000000000    0.0000000000000000    0.6683190000000000 Mg
   0.0000000000000000    0.5000000000000000    0.3228190000000000 Mg
   0.5000000000000000    0.5000000000000000    0.8437190000000000 Mg
   0.5000000000000000    0.0000000000000000    0.1651420000000000 Cu
