Li2 I2
1.0
      3.6352554000       0.0000000000       0.0000000000
     -1.8176264801       3.1482243223       0.0000000000
      0.0000000000       0.0000000000       5.8333580480
Li I
2 2
direct
   0.3333333333333333    0.6666666666666666    0.9968416600000000 Li
   0.6666666666666666    0.3333333333333333    0.4968416600000000 Li
   0.3333333333333333    0.6666666666666666    0.3781583400000000 I
   0.6666666666666666    0.3333333333333333    0.8781583400000000 I
