Zn3 Cu1
1.0
      2.5115519645       0.0000000000       0.0000000000
     -0.8620085716       2.3589901426       0.0000000000
      0.0000000000       0.0000000000       8.1139861000
Zn Cu
3 1
direct
   0.5000000000000000    0.5000000000000000    0.7636800000000000 Zn
   0.0000000000000000    0.0000000000000000    0.5000000000000000 Zn
   0.5000000000000000    0.5000000000000000    0.2363200000000000 Zn
   0.0000000000000000    0.0000000000000000    0.0000000000000000 Cu
