Zn3 Cu1
1.0
      2.1149911280       0.0000000000       0.0000000000
     -0.7259019550       1.9865180148       0.0000000000
      0.0000000000       0.0000000000       6.8328304000
Zn Cu
3 1
direct
   0.5000000000000000    0.5000000000000000    0.7636800000000000 Zn
   0.0000000000000000    0.0000000000000000    0.5000000000000000 Zn
   0.5000000000000000    0.5000000000000000    0.2363200000000000 Zn
   0.0000000000000000    0.0000000000000000    0.0000000000000000 Cu
