Zn3 Cu1
1.0
      2.3793650190       0.0000000000       0.0000000000
     -0.8166396994       2.2348327667       0.0000000000
      0.0000000000       0.0000000000       7.6869342000
Zn Cu
3 1
direct
   0.5000000000000000    0.5000000000000000    0.7636800000000000 Zn
   0.0000000000000000    0.0000000000000000    0.5000000000000000 Zn
   0.5000000000000000    0.5000000000000000    0.2363200000000000 Zn
   0.0000000000000000    0.0000000000000000    0.0000000000000000 Cu
