Zn3 Cu1
1.0
      2.2471780735       0.0000000000       0.0000000000
     -0.7712708272       2.1106753908       0.0000000000
      0.0000000000       0.0000000000       7.2598823000
Zn Cu
3 1
direct
   0.5000000000000000    0.5000000000000000    0.7636800000000000 Zn
   0.0000000000000000    0.0000000000000000    0.5000000000000000 Zn
   0.5000000000000000    0.5000000000000000    0.2363200000000000 Zn
   0.0000000000000000    0.0000000000000000    0.0000000000000000 Cu
