Zn3 Cu1
1.0
      1.9828041825       0.0000000000       0.0000000000
     -0.6805330828       1.8623606389       0.0000000000
      0.0000000000       0.0000000000       6.4057785000
Zn Cu
3 1
direct
   0.5000000000000000    0.5000000000000000    0.7636800000000000 Zn
   0.0000000000000000    0.0000000000000000    0.5000000000000000 Zn
   0.5000000000000000    0.5000000000000000    0.2363200000000000 Zn
   0.0000000000000000    0.0000000000000000    0.0000000000000000 Cu
