Cu1 I2
1.0
      4.1603072000       0.0000000000       0.0000000000
     -0.0000000000       4.1603072000       0.0000000000
      0.0000000000       0.0000000000       3.6353360000
Cu I
1 2
direct
   0.0000000000000000    0.0000000000000000    0.0000000000000000 Cu
   0.0000000000000000    0.5000000000000000    0.0000000000000000 I
   0.5000000000000000    0.0000000000000000    0.0000000000000000 I
