K3 Sn1
1.0
      4.3512343859       0.0000000000       2.5121863440
      1.4504114620       4.1023831211       2.5121863440
      0.0000000000       0.0000000000       5.0243726880
K Sn
3 1
direct
   0.2500000000000000    0.2500000000000000    0.2500000000000000 K
   0.7500000000000000    0.7500000000000000    0.7500000000000000 K
   0.5000000000000000    0.5000000000000000    0.5000000000000000 K
   0.0000000000000000    0.0000000000000000    0.0000000000000000 Sn
