K3 Sn1
1.0
      4.0792822368       0.0000000000       2.3551746975
      1.3597607456       3.8459841760       2.3551746975
      0.0000000000       0.0000000000       4.7103493950
K Sn
3 1
direct
   0.2500000000000000    0.2500000000000000    0.2500000000000000 K
   0.7500000000000000    0.7500000000000000    0.7500000000000000 K
   0.5000000000000000    0.5000000000000000    0.5000000000000000 K
   0.0000000000000000    0.0000000000000000    0.0000000000000000 Sn
