K3 Sn1
1.0
      4.6231865350       0.0000000000       2.6691979905
      1.5410621783       4.3587820661       2.6691979905
      0.0000000000       0.0000000000       5.3383959810
K Sn
3 1
direct
   0.2500000000000000    0.2500000000000000    0.2500000000000000 K
   0.7500000000000000    0.7500000000000000    0.7500000000000000 K
   0.5000000000000000    0.5000000000000000    0.5000000000000000 K
   0.0000000000000000    0.0000000000000000    0.0000000000000000 Sn
