K3 Sn1
1.0
      5.1670908332       0.0000000000       2.9832212835
      1.7223636111       4.8715799563       2.9832212835
      0.0000000000       0.0000000000       5.9664425670
K Sn
3 1
direct
   0.2500000000000000    0.2500000000000000    0.2500000000000000 K
   0.7500000000000000    0.7500000000000000    0.7500000000000000 K
   0.5000000000000000    0.5000000000000000    0.5000000000000000 K
   0.0000000000000000    0.0000000000000000    0.0000000000000000 Sn
