K3 Sn1
1.0
      4.8951386841       0.0000000000       2.8262096370
      1.6317128947       4.6151810112       2.8262096370
      0.0000000000       0.0000000000       5.6524192740
K Sn
3 1
direct
   0.2500000000000000    0.2500000000000000    0.2500000000000000 K
   0.7500000000000000    0.7500000000000000    0.7500000000000000 K
   0.5000000000000000    0.5000000000000000    0.5000000000000000 K
   0.0000000000000000    0.0000000000000000    0.0000000000000000 Sn
