K4 O12
1.0
      5.2404539363       0.0000000000      -1.3590157831
     -3.1373833976       4.1975210392      -1.3590157831
      0.0000000000       0.0000000000       5.4138047025
K O
4 12
direct
   0.7500000000000000    0.2500000000000000    0.5000000000000000 K
   0.2500000000000000    0.7500000000000000    0.5000000000000000 K
   0.2500000000000000    0.2500000000000000    0.0000000000000000 K
   0.7500000000000000    0.7500000000000000    0.0000000000000000 K
   0.7506770000000000    0.5663450000000000    0.3170220000000000 O
   0.4336550000000000    0.7506770000000000    0.1843320000000000 O
   0.5663450000000000    0.2493230000000000    0.8156679999999999 O
   0.2493230000000000    0.4336550000000000    0.6829780000000000 O
   0.2185050000000000    0.2814950000000000    0.5000000000000000 O
   0.2814950000000000    0.7814950000000001    0.0629890000000000 O
   0.7185049999999999    0.2185050000000000    0.9370110000000000 O
   0.7814950000000001    0.7185049999999999    0.5000000000000000 O
   0.0663450000000000    0.2506770000000000    0.3170220000000000 O
   0.2506770000000000    0.9336550000000000    0.1843320000000000 O
   0.7493230000000000    0.0663450000000000    0.8156679999999999 O
   0.9336550000000000    0.7493230000000000    0.6829780000000000 O
