Li6 Rh2
1.0
      5.0297292100       0.0000000000       0.0000000000
     -2.5148653432       4.3558728438       0.0000000000
      0.0000000000       0.0000000000       4.2150869865
Li Rh
6 2
direct
   0.1754870700000000    0.3509731300000000    0.2500000000000000 Li
   0.6490268700000000    0.8245129300000000    0.2500000000000000 Li
   0.1754870700000000    0.8245129300000000    0.2500000000000000 Li
   0.8245129300000000    0.6490268700000000    0.7500000000000000 Li
   0.3509731300000000    0.1754870700000000    0.7500000000000000 Li
   0.8245129300000000    0.1754870700000000    0.7500000000000000 Li
   0.3333333333333333    0.6666666666666666    0.7500000000000000 Rh
   0.6666666666666666    0.3333333333333333    0.2500000000000000 Rh
