Cu1 S1
1.0
      3.0017840189       0.0000000000       1.7331970850
      1.0003261414       2.8302040398       1.7331970850
      0.0000000000       0.0000000000       3.4663941715
Cu S
1 1
direct
   0.2500000000000000    0.2500000000000000    0.2500000000000000 Cu
   0.0000000000000000    0.0000000000000000    0.0000000000000000 S
