Cu1 S1
1.0
      2.5278181212       0.0000000000       1.4595343874
      0.8423799085       2.3833297177       1.4595343874
      0.0000000000       0.0000000000       2.9190687760
Cu S
1 1
direct
   0.2500000000000000    0.2500000000000000    0.2500000000000000 Cu
   0.0000000000000000    0.0000000000000000    0.0000000000000000 S
