Cu1 S1
1.0
      2.8437953863       0.0000000000       1.6419761858
      0.9476773971       2.6812459324       1.6419761858
      0.0000000000       0.0000000000       3.2839523730
Cu S
1 1
direct
   0.2500000000000000    0.2500000000000000    0.2500000000000000 Cu
   0.0000000000000000    0.0000000000000000    0.0000000000000000 S
