Cu1 S1
1.0
      2.6858067537       0.0000000000       1.5507552866
      0.8950286528       2.5322878251       1.5507552866
      0.0000000000       0.0000000000       3.1015105745
Cu S
1 1
direct
   0.2500000000000000    0.2500000000000000    0.2500000000000000 Cu
   0.0000000000000000    0.0000000000000000    0.0000000000000000 S
