Cu1 S1
1.0
      2.3698294886       0.0000000000       1.3683134882
      0.7897311643       2.2343716104       1.3683134882
      0.0000000000       0.0000000000       2.7366269775
Cu S
1 1
direct
   0.2500000000000000    0.2500000000000000    0.2500000000000000 Cu
   0.0000000000000000    0.0000000000000000    0.0000000000000000 S
