Cu1 Au1
1.0
      2.1907988725       0.0000000000       2.9276246281
      0.9741242994       1.9623153541       2.9276246281
      0.0000000000       0.0000000000       3.6565812400
Cu Au
1 1
direct
   0.5000000000000000    0.5000000000000000    0.5000000000000000 Cu
   0.0000000000000000    0.0000000000000000    0.0000000000000000 Au
