Cu1 Au1
1.0
      2.3277238020       0.0000000000       3.1106011674
      1.0350070681       2.0849600637       3.1106011674
      0.0000000000       0.0000000000       3.8851175675
Cu Au
1 1
direct
   0.5000000000000000    0.5000000000000000    0.5000000000000000 Cu
   0.0000000000000000    0.0000000000000000    0.0000000000000000 Au
