Cu1 Au1
1.0
      2.6015736610       0.0000000000       3.4765542459
      1.1567726056       2.3302494830       3.4765542459
      0.0000000000       0.0000000000       4.3421902225
Cu Au
1 1
direct
   0.5000000000000000    0.5000000000000000    0.5000000000000000 Cu
   0.0000000000000000    0.0000000000000000    0.0000000000000000 Au
