Cu1 Au1
1.0
      2.0538739429       0.0000000000       2.7446480888
      0.9132415307       1.8396706445       2.7446480888
      0.0000000000       0.0000000000       3.4280449125
Cu Au
1 1
direct
   0.5000000000000000    0.5000000000000000    0.5000000000000000 Cu
   0.0000000000000000    0.0000000000000000    0.0000000000000000 Au
