Cu1 Au1
1.0
      2.4646487315       0.0000000000       3.2935777066
      1.0958898368       2.2076047733       3.2935777066
      0.0000000000       0.0000000000       4.1136538950
Cu Au
1 1
direct
   0.5000000000000000    0.5000000000000000    0.5000000000000000 Cu
   0.0000000000000000    0.0000000000000000    0.0000000000000000 Au
