Mg2 C4
1.0
      3.5556993000       0.0000000000       0.0000000000
     -0.0000000000       3.5556993000       0.0000000000
      0.0000000000       0.0000000000       4.4883801000
Mg C
2 4
direct
   0.5000000000000000    0.5000000000000000    0.0000000000000000 Mg
   0.0000000000000000    0.0000000000000000    0.5000000000000000 Mg
   0.8876550000000000    0.8876550000000000    0.0000000000000000 C
   0.6123450000000000    0.3876550000000000    0.5000000000000000 C
   0.1123450000000000    0.1123450000000000    0.0000000000000000 C
   0.3876550000000000    0.6123450000000000    0.5000000000000000 C
