Yb1 Mn3
1.0
      3.4679045705       0.0000000000       0.0000000000
     -0.0000000000       3.4679045705       0.0000000000
      0.0000000000       0.0000000000       3.4679045705
Yb Mn
1 3
direct
   0.0000000000000000    0.0000000000000000    0.0000000000000000 Yb
   0.0000000000000000    0.5000000000000000    0.5000000000000000 Mn
   0.5000000000000000    0.0000000000000000    0.5000000000000000 Mn
   0.5000000000000000    0.5000000000000000    0.0000000000000000 Mn
