K3 Ga1
1.0
      4.2005887231       0.0000000000      -3.6646176705
     -0.8683108746       4.1098639693      -3.6646176705
      0.0000000000       0.0000000000       5.5744388320
K Ga
3 1
direct
   0.7500000000000000    0.2500000000000000    0.5000000000000000 K
   0.2500000000000000    0.7500000000000000    0.5000000000000000 K
   0.5000000000000000    0.5000000000000000    0.0000000000000000 K
   0.0000000000000000    0.0000000000000000    0.0000000000000000 Ga
