K3 Ga1
1.0
      4.4631255183       0.0000000000      -3.8936562749
     -0.9225803042       4.3667304674      -3.8936562749
      0.0000000000       0.0000000000       5.9228412590
K Ga
3 1
direct
   0.7500000000000000    0.2500000000000000    0.5000000000000000 K
   0.2500000000000000    0.7500000000000000    0.5000000000000000 K
   0.5000000000000000    0.5000000000000000    0.0000000000000000 K
   0.0000000000000000    0.0000000000000000    0.0000000000000000 Ga
