K3 Ga1
1.0
      4.9881991087       0.0000000000      -4.3517334837
     -1.0311191635       4.8804634635      -4.3517334837
      0.0000000000       0.0000000000       6.6196461130
K Ga
3 1
direct
   0.7500000000000000    0.2500000000000000    0.5000000000000000 K
   0.2500000000000000    0.7500000000000000    0.5000000000000000 K
   0.5000000000000000    0.5000000000000000    0.0000000000000000 K
   0.0000000000000000    0.0000000000000000    0.0000000000000000 Ga
