K3 Ga1
1.0
      3.9380519279       0.0000000000      -3.4355790661
     -0.8140414449       3.8529974712      -3.4355790661
      0.0000000000       0.0000000000       5.2260364050
K Ga
3 1
direct
   0.7500000000000000    0.2500000000000000    0.5000000000000000 K
   0.2500000000000000    0.7500000000000000    0.5000000000000000 K
   0.5000000000000000    0.5000000000000000    0.0000000000000000 K
   0.0000000000000000    0.0000000000000000    0.0000000000000000 Ga
