K3 Ga1
1.0
      4.7256623135       0.0000000000      -4.1226948793
     -0.9768497339       4.6235969655      -4.1226948793
      0.0000000000       0.0000000000       6.2712436860
K Ga
3 1
direct
   0.7500000000000000    0.2500000000000000    0.5000000000000000 K
   0.2500000000000000    0.7500000000000000    0.5000000000000000 K
   0.5000000000000000    0.5000000000000000    0.0000000000000000 K
   0.0000000000000000    0.0000000000000000    0.0000000000000000 Ga
