Li1 N1
1.0
      2.5682402449       0.0000000000      -1.4623755427
     -0.8326877644       2.4295038676      -1.4623755427
      0.0000000000       0.0000000000       2.9863738620
Li N
1 1
direct
   0.5000000000000000    0.5000000000000000    0.0000000000000000 Li
   0.7500000000000000    0.2500000000000000    0.5000000000000000 N
