Li1 N1
1.0
      2.7109202585       0.0000000000      -1.5436186284
     -0.8789481957       2.5644763047      -1.5436186284
      0.0000000000       0.0000000000       3.1522835210
Li N
1 1
direct
   0.5000000000000000    0.5000000000000000    0.0000000000000000 Li
   0.7500000000000000    0.2500000000000000    0.5000000000000000 N
