Li1 Mg3
1.0
      3.6371956473       0.0000000000      -2.5934502751
     -0.3196711211       2.2487488012      -3.8465719425
      0.0000000000       0.0000000000       4.4671217250
Li Mg
1 3
direct
   0.8316279900000000    0.5000000000000000    0.3316279900000000 Li
   0.3354452400000000    0.0000000000000000    0.3354452400000000 Mg
   0.7506974300000000    0.7509005500000000    0.9997958800000000 Mg
   0.2488953400000000    0.2490994500000000    0.9997958800000000 Mg
