Li3 C1
1.0
      2.5866072776       0.0000000000       1.4933784080
      0.8622024259       2.4386767283       1.4933784080
      0.0000000000       0.0000000000       2.9867568160
Li C
3 1
direct
   0.7500000000000000    0.7500000000000000    0.7500000000000000 Li
   0.2500000000000000    0.2500000000000000    0.2500000000000000 Li
   0.5000000000000000    0.5000000000000000    0.5000000000000000 Li
   0.0000000000000000    0.0000000000000000    0.0000000000000000 C
