Li3 C1
1.0
      2.4249443227       0.0000000000       1.4000422575
      0.8083147742       2.2862594328       1.4000422575
      0.0000000000       0.0000000000       2.8000845150
Li C
3 1
direct
   0.7500000000000000    0.7500000000000000    0.7500000000000000 Li
   0.2500000000000000    0.2500000000000000    0.2500000000000000 Li
   0.5000000000000000    0.5000000000000000    0.5000000000000000 Li
   0.0000000000000000    0.0000000000000000    0.0000000000000000 C
