Li3 C1
1.0
      2.9099331873       0.0000000000       1.6800507090
      0.9699777291       2.7435113194       1.6800507090
      0.0000000000       0.0000000000       3.3601014180
Li C
3 1
direct
   0.7500000000000000    0.7500000000000000    0.7500000000000000 Li
   0.2500000000000000    0.2500000000000000    0.2500000000000000 Li
   0.5000000000000000    0.5000000000000000    0.5000000000000000 Li
   0.0000000000000000    0.0000000000000000    0.0000000000000000 C
