Cu1 N1
1.0
      2.1682284270       0.0000000000       1.2518272660
      0.7227428090       2.0442253652       1.2518272660
      0.0000000000       0.0000000000       2.5036545320
Cu N
1 1
direct
   0.0000000000000000    0.0000000000000000    0.0000000000000000 Cu
   0.5000000000000000    0.5000000000000000    0.5000000000000000 N
