Cu1 N1
1.0
      2.4233141243       0.0000000000       1.3991010620
      0.8077713748       2.2847224670       1.3991010620
      0.0000000000       0.0000000000       2.7982021240
Cu N
1 1
direct
   0.0000000000000000    0.0000000000000000    0.0000000000000000 Cu
   0.5000000000000000    0.5000000000000000    0.5000000000000000 N
