Cu1 N1
1.0
      2.2957712757       0.0000000000       1.3254641640
      0.7652570919       2.1644739161       1.3254641640
      0.0000000000       0.0000000000       2.6509283280
Cu N
1 1
direct
   0.0000000000000000    0.0000000000000000    0.0000000000000000 Cu
   0.5000000000000000    0.5000000000000000    0.5000000000000000 N
