Cu1 N1
1.0
      2.0406855784       0.0000000000       1.1781903680
      0.6802285261       1.9239768143       1.1781903680
      0.0000000000       0.0000000000       2.3563807360
Cu N
1 1
direct
   0.0000000000000000    0.0000000000000000    0.0000000000000000 Cu
   0.5000000000000000    0.5000000000000000    0.5000000000000000 N
