Cu1 N1
1.0
      1.9131427297       0.0000000000       1.1045534700
      0.6377142432       1.8037282634       1.1045534700
      0.0000000000       0.0000000000       2.2091069400
Cu N
1 1
direct
   0.0000000000000000    0.0000000000000000    0.0000000000000000 Cu
   0.5000000000000000    0.5000000000000000    0.5000000000000000 N
