K1 Pb3
1.0
      3.8260282500       0.0000000000       0.0000000000
     -0.0000000000       3.8260282500       0.0000000000
      0.0000000000       0.0000000000       3.8260282500
K Pb
1 3
direct
   0.0000000000000000    0.0000000000000000    0.0000000000000000 K
   0.0000000000000000    0.5000000000000000    0.5000000000000000 Pb
   0.5000000000000000    0.0000000000000000    0.5000000000000000 Pb
   0.5000000000000000    0.5000000000000000    0.0000000000000000 Pb
