K1 Pb3
1.0
      4.5912339000       0.0000000000       0.0000000000
     -0.0000000000       4.5912339000       0.0000000000
      0.0000000000       0.0000000000       4.5912339000
K Pb
1 3
direct
   0.0000000000000000    0.0000000000000000    0.0000000000000000 K
   0.0000000000000000    0.5000000000000000    0.5000000000000000 Pb
   0.5000000000000000    0.0000000000000000    0.5000000000000000 Pb
   0.5000000000000000    0.5000000000000000    0.0000000000000000 Pb
