Mg1 Br2
1.0
      3.0859753280       0.0000000000       0.0000000000
     -1.5429876645       2.6725333525       0.0000000000
      0.0000000000       0.0000000000       5.1215377440
Mg Br
1 2
direct
   0.0000000000000000    0.0000000000000000    0.0000000000000000 Mg
   0.3333333333333333    0.6666666666666666    0.2334763100000000 Br
   0.6666666666666666    0.3333333333333333    0.7665236900000000 Br
