Mg1 Br2
1.0
      3.2788487860       0.0000000000       0.0000000000
     -1.6394243936       2.8395666870       0.0000000000
      0.0000000000       0.0000000000       5.4416338530
Mg Br
1 2
direct
   0.0000000000000000    0.0000000000000000    0.0000000000000000 Mg
   0.3333333333333333    0.6666666666666666    0.2334763100000000 Br
   0.6666666666666666    0.3333333333333333    0.7665236900000000 Br
