Mg1 Br2
1.0
      3.6645957020       0.0000000000       0.0000000000
     -1.8322978516       3.1736333561       0.0000000000
      0.0000000000       0.0000000000       6.0818260710
Mg Br
1 2
direct
   0.0000000000000000    0.0000000000000000    0.0000000000000000 Mg
   0.3333333333333333    0.6666666666666666    0.2334763100000000 Br
   0.6666666666666666    0.3333333333333333    0.7665236900000000 Br
