Mg1 Br2
1.0
      3.4717222440       0.0000000000       0.0000000000
     -1.7358611226       3.0066000216       0.0000000000
      0.0000000000       0.0000000000       5.7617299620
Mg Br
1 2
direct
   0.0000000000000000    0.0000000000000000    0.0000000000000000 Mg
   0.3333333333333333    0.6666666666666666    0.2334763100000000 Br
   0.6666666666666666    0.3333333333333333    0.7665236900000000 Br
