Zr2 Mn4
1.0
      3.6521261467       0.0000000000       2.1085558983
      1.2173750999       3.4432573493       2.1085558994
      0.0000000000       0.0000000000       4.2171118000
Zr Mn
2 4
direct
   0.3750000000000000    0.3750000000000000    0.3750000000000000 Zr
   0.6250000000000000    0.6250000000000000    0.6250000000000000 Zr
   0.0000000000000000    0.0000000000000000    0.0000000000000000 Mn
   0.0000000000000000    0.0000000000000000    0.5000000000000000 Mn
   0.5000000000000000    0.0000000000000000    0.0000000000000000 Mn
   0.0000000000000000    0.5000000000000000    0.0000000000000000 Mn
