Zr2 Mn4
1.0
      3.2224642471       0.0000000000       1.8604904985
      1.0741545000       3.0381682494       1.8604904994
      0.0000000000       0.0000000000       3.7209810000
Zr Mn
2 4
direct
   0.3750000000000000    0.3750000000000000    0.3750000000000000 Zr
   0.6250000000000000    0.6250000000000000    0.6250000000000000 Zr
   0.0000000000000000    0.0000000000000000    0.0000000000000000 Mn
   0.0000000000000000    0.0000000000000000    0.5000000000000000 Mn
   0.5000000000000000    0.0000000000000000    0.0000000000000000 Mn
   0.0000000000000000    0.5000000000000000    0.0000000000000000 Mn
