Zr2 Mn4
1.0
      3.4372951969       0.0000000000       1.9845231984
      1.1457648000       3.2407127994       1.9845231994
      0.0000000000       0.0000000000       3.9690464000
Zr Mn
2 4
direct
   0.3750000000000000    0.3750000000000000    0.3750000000000000 Zr
   0.6250000000000000    0.6250000000000000    0.6250000000000000 Zr
   0.0000000000000000    0.0000000000000000    0.0000000000000000 Mn
   0.0000000000000000    0.0000000000000000    0.5000000000000000 Mn
   0.5000000000000000    0.0000000000000000    0.0000000000000000 Mn
   0.0000000000000000    0.5000000000000000    0.0000000000000000 Mn
