Zr2 Mn4
1.0
      3.8669570965       0.0000000000       2.2325885982
      1.2889853999       3.6458018993       2.2325885993
      0.0000000000       0.0000000000       4.4651772000
Zr Mn
2 4
direct
   0.3750000000000000    0.3750000000000000    0.3750000000000000 Zr
   0.6250000000000000    0.6250000000000000    0.6250000000000000 Zr
   0.0000000000000000    0.0000000000000000    0.0000000000000000 Mn
   0.0000000000000000    0.0000000000000000    0.5000000000000000 Mn
   0.5000000000000000    0.0000000000000000    0.0000000000000000 Mn
   0.0000000000000000    0.5000000000000000    0.0000000000000000 Mn
