Zr2 Mn4
1.0
      4.0817880463       0.0000000000       2.3566212981
      1.3605956999       3.8483464493       2.3566212993
      0.0000000000       0.0000000000       4.7132426000
Zr Mn
2 4
direct
   0.3750000000000000    0.3750000000000000    0.3750000000000000 Zr
   0.6250000000000000    0.6250000000000000    0.6250000000000000 Zr
   0.0000000000000000    0.0000000000000000    0.0000000000000000 Mn
   0.0000000000000000    0.0000000000000000    0.5000000000000000 Mn
   0.5000000000000000    0.0000000000000000    0.0000000000000000 Mn
   0.0000000000000000    0.5000000000000000    0.0000000000000000 Mn
