K6 Ir2
1.0
      6.4620963295       0.0000000000       0.0000000000
     -3.2310483953       5.5963394500       0.0000000000
      0.0000000000       0.0000000000       4.7103073000
K Ir
6 2
direct
   0.1869170000000000    0.3738350000000000    0.2500000000000000 K
   0.6261650000000000    0.8130830000000000    0.2500000000000000 K
   0.1869170000000000    0.8130830000000000    0.2500000000000000 K
   0.8130830000000000    0.6261650000000000    0.7500000000000000 K
   0.3738350000000000    0.1869170000000000    0.7500000000000000 K
   0.8130830000000000    0.1869170000000000    0.7500000000000000 K
   0.3333333333333333    0.6666666666666666    0.7500000000000000 Ir
   0.6666666666666666    0.3333333333333333    0.2500000000000000 Ir
