K6 Ir2
1.0
      5.7018497025       0.0000000000       0.0000000000
     -2.8509250546       4.9379465735       0.0000000000
      0.0000000000       0.0000000000       4.1561535000
K Ir
6 2
direct
   0.1869170000000000    0.3738350000000000    0.2500000000000000 K
   0.6261650000000000    0.8130830000000000    0.2500000000000000 K
   0.1869170000000000    0.8130830000000000    0.2500000000000000 K
   0.8130830000000000    0.6261650000000000    0.7500000000000000 K
   0.3738350000000000    0.1869170000000000    0.7500000000000000 K
   0.8130830000000000    0.1869170000000000    0.7500000000000000 K
   0.3333333333333333    0.6666666666666666    0.7500000000000000 Ir
   0.6666666666666666    0.3333333333333333    0.2500000000000000 Ir
