K3 Dy1
1.0
      4.8650674818       0.0000000000      -5.0831229456
     -0.7839988775       4.8014817882      -5.0831229456
      0.0000000000       0.0000000000       7.0361225460
K Dy
3 1
direct
   0.7500000000000000    0.2500000000000000    0.5000000000000000 K
   0.2500000000000000    0.7500000000000000    0.5000000000000000 K
   0.5000000000000000    0.5000000000000000    0.0000000000000000 K
   0.0000000000000000    0.0000000000000000    0.0000000000000000 Dy
