K3 Dy1
1.0
      4.5947859550       0.0000000000      -4.8007272264
     -0.7404433843       4.5347328000      -4.8007272264
      0.0000000000       0.0000000000       6.6452268490
K Dy
3 1
direct
   0.7500000000000000    0.2500000000000000    0.5000000000000000 K
   0.2500000000000000    0.7500000000000000    0.5000000000000000 K
   0.5000000000000000    0.5000000000000000    0.0000000000000000 K
   0.0000000000000000    0.0000000000000000    0.0000000000000000 Dy
