K3 Dy1
1.0
      4.3245044282       0.0000000000      -4.5183315072
     -0.6968878911       4.2679838117      -4.5183315072
      0.0000000000       0.0000000000       6.2543311520
K Dy
3 1
direct
   0.7500000000000000    0.2500000000000000    0.5000000000000000 K
   0.2500000000000000    0.7500000000000000    0.5000000000000000 K
   0.5000000000000000    0.5000000000000000    0.0000000000000000 K
   0.0000000000000000    0.0000000000000000    0.0000000000000000 Dy
