K3 Dy1
1.0
      4.0542229015       0.0000000000      -4.2359357880
     -0.6533323979       4.0012348235      -4.2359357880
      0.0000000000       0.0000000000       5.8634354550
K Dy
3 1
direct
   0.7500000000000000    0.2500000000000000    0.5000000000000000 K
   0.2500000000000000    0.7500000000000000    0.5000000000000000 K
   0.5000000000000000    0.5000000000000000    0.0000000000000000 K
   0.0000000000000000    0.0000000000000000    0.0000000000000000 Dy
