K3 Dy1
1.0
      5.1353490085       0.0000000000      -5.3655186648
     -0.8275543707       5.0682307764      -5.3655186648
      0.0000000000       0.0000000000       7.4270182430
K Dy
3 1
direct
   0.7500000000000000    0.2500000000000000    0.5000000000000000 K
   0.2500000000000000    0.7500000000000000    0.5000000000000000 K
   0.5000000000000000    0.5000000000000000    0.0000000000000000 K
   0.0000000000000000    0.0000000000000000    0.0000000000000000 Dy
