Li1 Pd7
1.0
      3.8072120952       0.0000000000       2.1980949280
      1.2690706984       3.5894739865       2.1980949280
      0.0000000000       0.0000000000       4.3961898560
Li Pd
1 7
direct
   0.0000000000000000    0.0000000000000000    0.0000000000000000 Li
   0.5000000000000000    0.5000000000000000    0.5000000000000000 Pd
   0.5000000000000000    0.0000000000000000    0.0000000000000000 Pd
   0.5000000000000000    0.0000000000000000    0.5000000000000000 Pd
   0.5000000000000000    0.5000000000000000    0.0000000000000000 Pd
   0.0000000000000000    0.5000000000000000    0.5000000000000000 Pd
   0.0000000000000000    0.5000000000000000    0.0000000000000000 Pd
   0.0000000000000000    0.0000000000000000    0.5000000000000000 Pd
