Li1 Pd7
1.0
      3.5692613392       0.0000000000       2.0607139950
      1.1897537797       3.3651318624       2.0607139950
      0.0000000000       0.0000000000       4.1214279900
Li Pd
1 7
direct
   0.0000000000000000    0.0000000000000000    0.0000000000000000 Li
   0.5000000000000000    0.5000000000000000    0.5000000000000000 Pd
   0.5000000000000000    0.0000000000000000    0.0000000000000000 Pd
   0.5000000000000000    0.0000000000000000    0.5000000000000000 Pd
   0.5000000000000000    0.5000000000000000    0.0000000000000000 Pd
   0.0000000000000000    0.5000000000000000    0.5000000000000000 Pd
   0.0000000000000000    0.5000000000000000    0.0000000000000000 Pd
   0.0000000000000000    0.0000000000000000    0.5000000000000000 Pd
