Li2 O4
1.0
      3.3355926092       0.0000000000       1.7751602863
     -0.8545534191       3.2242699186       1.7751602863
      0.0000000000       0.0000000000       3.7272338910
Li O
2 4
direct
   0.2516550000000000    0.7483450000000000    0.5000000000000000 Li
   0.7483450000000000    0.2516550000000000    0.5000000000000000 Li
   0.2098500000000000    0.7901500000000000    0.0000000000000000 O
   0.7901500000000000    0.2098500000000000    0.0000000000000000 O
   0.7906060000000000    0.7906060000000000    0.0076510000000000 O
   0.2093940000000000    0.2093940000000000    0.9923490000000000 O
