Cu6 Sn2
1.0
      3.6751327090       0.0000000000       0.0000000000
     -0.0000000000       4.0498885715       0.0000000000
      0.0000000000       0.0000000000       4.6176455700
Cu Sn
6 2
direct
   0.7500000000000000    0.6990001200000000    0.2500000000000000 Cu
   0.2500000000000000    0.8441900000000000    0.0005197400000000 Cu
   0.7500000000000000    0.1558100000000000    0.9994802600000000 Cu
   0.2500000000000000    0.8441900000000000    0.4994802600000000 Cu
   0.7500000000000000    0.1558100000000000    0.5005197400000000 Cu
   0.2500000000000000    0.3010008800000000    0.7500000000000000 Cu
   0.7500000000000000    0.6588199100000000    0.7500000000000000 Sn
   0.2500000000000000    0.3411800900000000    0.2500000000000000 Sn
