Tm2 Zn17
1.0
      6.2861498212       0.0000000000       0.7903751216
      0.6972204335       6.2473645356       0.7903749451
      0.0000000000       0.0000000000       6.3356415040
Tm Zn
2 17
direct
   0.6643620900000000    0.6643620900000000    0.6643620900000000 Tm
   0.3356379100000000    0.3356379100000000    0.3356379100000000 Tm
   0.3520519100000000    0.3520519100000000    0.8385097500000001 Zn
   0.3520519100000000    0.8385097500000001    0.3520519100000000 Zn
   0.1003950700000000    0.1003950700000000    0.1003950700000000 Zn
   0.8996049300000000    0.8996049300000000    0.8996049300000000 Zn
   0.0000000000000000    0.0000000000000000    0.5000000000000000 Zn
   0.5000000000000000    0.0000000000000000    0.0000000000000000 Zn
   0.0000000000000000    0.5000000000000000    0.0000000000000000 Zn
   0.7025612800000000    0.2974387200000000    0.0000000000000000 Zn
   0.0000000000000000    0.7025612800000000    0.2974387200000000 Zn
   0.2974387200000000    0.0000000000000000    0.7025612800000000 Zn
   0.2974387200000000    0.7025612800000000    0.0000000000000000 Zn
   0.0000000000000000    0.2974387200000000    0.7025612800000000 Zn
   0.7025612800000000    0.0000000000000000    0.2974387200000000 Zn
   0.6479480900000000    0.1614902500000000    0.6479480900000000 Zn
   0.6479480900000000    0.6479480900000000    0.1614902500000000 Zn
   0.1614902500000000    0.6479480900000000    0.6479480900000000 Zn
   0.8385097500000001    0.3520519100000000    0.3520519100000000 Zn
