Li4 Mg1
1.0
      2.2842448787       0.0000000000       9.3888038741
      1.1257038483       1.9876029563       9.3888038741
      0.0000000000       0.0000000000       9.6626810700
Li Mg
4 1
direct
   0.5999861500000000    0.5999861500000000    0.5999861500000000 Li
   0.1999851900000000    0.1999851900000000    0.1999851900000000 Li
   0.8000148100000000    0.8000148100000000    0.8000148100000000 Li
   0.4000138500000000    0.4000138500000000    0.4000138500000000 Li
   0.0000000000000000    0.0000000000000000    0.0000000000000000 Mg
