Li4 Mg1
1.0
      2.4365278707       0.0000000000      10.0147241324
      1.2007507715       2.1201098201      10.0147241324
      0.0000000000       0.0000000000      10.3068598080
Li Mg
4 1
direct
   0.5999861500000000    0.5999861500000000    0.5999861500000000 Li
   0.1999851900000000    0.1999851900000000    0.1999851900000000 Li
   0.8000148100000000    0.8000148100000000    0.8000148100000000 Li
   0.4000138500000000    0.4000138500000000    0.4000138500000000 Li
   0.0000000000000000    0.0000000000000000    0.0000000000000000 Mg
