Li4 Mg1
1.0
      2.5888108626       0.0000000000      10.6406443907
      1.2757976947       2.2526166838      10.6406443907
      0.0000000000       0.0000000000      10.9510385460
Li Mg
4 1
direct
   0.5999861500000000    0.5999861500000000    0.5999861500000000 Li
   0.1999851900000000    0.1999851900000000    0.1999851900000000 Li
   0.8000148100000000    0.8000148100000000    0.8000148100000000 Li
   0.4000138500000000    0.4000138500000000    0.4000138500000000 Li
   0.0000000000000000    0.0000000000000000    0.0000000000000000 Mg
