Li4 Mg1
1.0
      2.8933768464       0.0000000000      11.8924849072
      1.4258915412       2.5176304114      11.8924849072
      0.0000000000       0.0000000000      12.2393960220
Li Mg
4 1
direct
   0.5999861500000000    0.5999861500000000    0.5999861500000000 Li
   0.1999851900000000    0.1999851900000000    0.1999851900000000 Li
   0.8000148100000000    0.8000148100000000    0.8000148100000000 Li
   0.4000138500000000    0.4000138500000000    0.4000138500000000 Li
   0.0000000000000000    0.0000000000000000    0.0000000000000000 Mg
