Li4 Mg1
1.0
      2.7410938545       0.0000000000      11.2665646489
      1.3508446179       2.3851235476      11.2665646489
      0.0000000000       0.0000000000      11.5952172840
Li Mg
4 1
direct
   0.5999861500000000    0.5999861500000000    0.5999861500000000 Li
   0.1999851900000000    0.1999851900000000    0.1999851900000000 Li
   0.8000148100000000    0.8000148100000000    0.8000148100000000 Li
   0.4000138500000000    0.4000138500000000    0.4000138500000000 Li
   0.0000000000000000    0.0000000000000000    0.0000000000000000 Mg
