Li1 Hf1
1.0
      2.6636446350       0.0000000000       0.0000000000
     -1.3318215525       2.3067843622       0.0000000000
      0.0000000000       0.0000000000       4.9163517000
Li Hf
1 1
direct
   0.0000000000000000    0.0000000000000000    0.0000000000000000 Li
   0.3333333333333333    0.6666666666666666    0.5000000000000000 Hf
