Li1 Hf1
1.0
      2.8116248925       0.0000000000       0.0000000000
     -1.4058116388       2.4349390490       0.0000000000
      0.0000000000       0.0000000000       5.1894823500
Li Hf
1 1
direct
   0.0000000000000000    0.0000000000000000    0.0000000000000000 Li
   0.3333333333333333    0.6666666666666666    0.5000000000000000 Hf
