Cu1 F2
1.0
      2.8102582500       0.0000000000       0.0000000000
     -0.0000000000       2.8102582500       0.0000000000
      0.0000000000       0.0000000000       2.7054787500
Cu F
1 2
direct
   0.0000000000000000    0.0000000000000000    0.0000000000000000 Cu
   0.5000000000000000    0.0000000000000000    0.0000000000000000 F
   0.0000000000000000    0.5000000000000000    0.0000000000000000 F
