Pr2 Zn4
1.0
      3.3764170426       0.0000000000       1.4693695452
      1.6602420895       4.2301241310       0.7989479378
      0.0000000000       0.0000000000       4.6139648640
Pr Zn
2 4
direct
   0.7500000000000000    0.7073179800000000    0.7926820200000000 Pr
   0.2500000000000000    0.2926820200000000    0.2073179800000000 Pr
   0.5603352000000000    0.2751573000000000    0.6041713000000000 Zn
   0.4396648000000000    0.7248427000000000    0.3958287000000000 Zn
   0.0603352000000000    0.1041713000000000    0.7751573000000000 Zn
   0.9396648000000000    0.8958287000000000    0.2248427000000000 Zn
