Pr2 Zn4
1.0
      3.7984691729       0.0000000000       1.6530407383
      1.8677723506       4.7588896473       0.8988164300
      0.0000000000       0.0000000000       5.1907104720
Pr Zn
2 4
direct
   0.7500000000000000    0.7073179800000000    0.7926820200000000 Pr
   0.2500000000000000    0.2926820200000000    0.2073179800000000 Pr
   0.5603352000000000    0.2751573000000000    0.6041713000000000 Zn
   0.4396648000000000    0.7248427000000000    0.3958287000000000 Zn
   0.0603352000000000    0.1041713000000000    0.7751573000000000 Zn
   0.9396648000000000    0.8958287000000000    0.2248427000000000 Zn
