Li6 Re2
1.0
      4.6028493225       0.0000000000       0.0000000000
     -2.3014253820       3.9861840269       0.0000000000
      0.0000000000       0.0000000000       3.8395885500
Li Re
6 2
direct
   0.1696000000000000    0.3391990000000000    0.2500000000000000 Li
   0.6608010000000000    0.8304000000000000    0.2500000000000000 Li
   0.1696000000000000    0.8304000000000000    0.2500000000000000 Li
   0.8304000000000000    0.6608010000000000    0.7500000000000000 Li
   0.3391990000000000    0.1696000000000000    0.7500000000000000 Li
   0.8304000000000000    0.1696000000000000    0.7500000000000000 Li
   0.3333333333333333    0.6666666666666666    0.7500000000000000 Re
   0.6666666666666666    0.3333333333333333    0.2500000000000000 Re
