Sm1 Zn1
1.0
      3.2614261470       0.0000000000       0.0000000000
     -0.0000000000       3.2614261470       0.0000000000
      0.0000000000       0.0000000000       3.2614261470
Sm Zn
1 1
direct
   0.0000000000000000    0.0000000000000000    0.0000000000000000 Sm
   0.5000000000000000    0.5000000000000000    0.5000000000000000 Zn
