K3 Ir1
1.0
      4.1032496374       0.0000000000      -2.6359273527
     -1.2239669445       3.9164476896      -2.6359273527
      0.0000000000       0.0000000000       4.8769632555
K Ir
3 1
direct
   0.7500000000000000    0.2500000000000000    0.5000000000000000 K
   0.2500000000000000    0.7500000000000000    0.5000000000000000 K
   0.5000000000000000    0.5000000000000000    0.0000000000000000 K
   0.0000000000000000    0.0000000000000000    0.0000000000000000 Ir
