K3 Ir1
1.0
      4.3446172631       0.0000000000      -2.7909819029
     -1.2959650000       4.1468269655      -2.7909819029
      0.0000000000       0.0000000000       5.1638434470
K Ir
3 1
direct
   0.7500000000000000    0.2500000000000000    0.5000000000000000 K
   0.2500000000000000    0.7500000000000000    0.5000000000000000 K
   0.5000000000000000    0.5000000000000000    0.0000000000000000 K
   0.0000000000000000    0.0000000000000000    0.0000000000000000 Ir
