K3 Ir1
1.0
      3.8618820116       0.0000000000      -2.4808728026
     -1.1519688889       3.6860684138      -2.4808728026
      0.0000000000       0.0000000000       4.5900830640
K Ir
3 1
direct
   0.7500000000000000    0.2500000000000000    0.5000000000000000 K
   0.2500000000000000    0.7500000000000000    0.5000000000000000 K
   0.5000000000000000    0.5000000000000000    0.0000000000000000 K
   0.0000000000000000    0.0000000000000000    0.0000000000000000 Ir
