K3 Ir1
1.0
      3.6205143859       0.0000000000      -2.3258182524
     -1.0799708334       3.4556891379      -2.3258182524
      0.0000000000       0.0000000000       4.3032028725
K Ir
3 1
direct
   0.7500000000000000    0.2500000000000000    0.5000000000000000 K
   0.2500000000000000    0.7500000000000000    0.5000000000000000 K
   0.5000000000000000    0.5000000000000000    0.0000000000000000 K
   0.0000000000000000    0.0000000000000000    0.0000000000000000 Ir
