K3 Ir1
1.0
      4.5859848888       0.0000000000      -2.9460364530
     -1.3679630556       4.3772062413      -2.9460364530
      0.0000000000       0.0000000000       5.4507236385
K Ir
3 1
direct
   0.7500000000000000    0.2500000000000000    0.5000000000000000 K
   0.2500000000000000    0.7500000000000000    0.5000000000000000 K
   0.5000000000000000    0.5000000000000000    0.0000000000000000 K
   0.0000000000000000    0.0000000000000000    0.0000000000000000 Ir
