Li2 Cd6
1.0
      5.8046252670       0.0000000000      -0.0000098331
     -2.9024113562       5.0268949326      -0.0000099101
      0.0000000000       0.0000000000       4.6067732975
Li Cd
2 6
direct
   0.6666666666666666    0.3333333333333333    0.2499990000000000 Li
   0.3333333333333333    0.6666666666666666    0.7500000000000000 Li
   0.8301121600000000    0.1698819400000000    0.7500000000000000 Cd
   0.3397716200000000    0.1698824900000000    0.7500000000000000 Cd
   0.8301215400000000    0.6602345700000000    0.7500000000000000 Cd
   0.1698839400000000    0.8301141600000000    0.2500020000000000 Cd
   0.6602365700000000    0.8301215400000000    0.2499990000000000 Cd
   0.1698814900000000    0.3397686200000000    0.2499990000000000 Cd
