Y1 Cu1
1.0
      2.5935865425       0.0000000000       0.0000000000
     -0.0000000000       2.5935865425       0.0000000000
      0.0000000000       0.0000000000       2.5935865425
Y Cu
1 1
direct
   0.0000000000000000    0.0000000000000000    0.0000000000000000 Y
   0.5000000000000000    0.5000000000000000    0.5000000000000000 Cu
