Zn13 Rh1
1.0
      4.0334783345       0.0000000000       0.6682871682
      0.5596096151       4.8589029145       1.8525704496
      0.0000000000       0.0000000000       5.2301178800
Zn Rh
13 1
direct
   0.0000000000000000    0.0000000000000000    0.0000000000000000 Zn
   0.6757202300000000    0.3847520600000000    0.7746102200000000 Zn
   0.3242797700000000    0.2253897800000000    0.6152479400000000 Zn
   0.3242797700000000    0.6152479400000000    0.2253897800000000 Zn
   0.6757202300000000    0.7746102200000000    0.3847520600000000 Zn
   0.8013232500000000    0.6383108800000000    0.0016663400000000 Zn
   0.1986767500000000    0.9983336600000000    0.3616891200000000 Zn
   0.1986767500000000    0.3616891200000000    0.9983336600000000 Zn
   0.8013232500000000    0.0016663400000000    0.6383108800000000 Zn
   0.6353446800000000    0.2228029300000000    0.2228029300000000 Zn
   0.3646553200000000    0.7771970700000000    0.7771970700000000 Zn
   0.9308416100000000    0.3875484900000000    0.3875484900000000 Zn
   0.0691583900000000    0.6124515100000000    0.6124515100000000 Zn
   0.5000000000000000    0.0000000000000000    0.0000000000000000 Rh
