Li6 Y2
1.0
      4.9260703350       0.0000000000       0.0000000000
     -2.4630350000       4.2661021477       0.0000000000
      0.0000000000       0.0000000000       3.7445895000
Li Y
6 2
direct
   0.1497690000000000    0.2995390000000000    0.2500000000000000 Li
   0.7004610000000000    0.8502310000000000    0.2500000000000000 Li
   0.1497690000000000    0.8502310000000000    0.2500000000000000 Li
   0.8502310000000000    0.7004610000000000    0.7500000000000000 Li
   0.2995390000000000    0.1497690000000000    0.7500000000000000 Li
   0.8502310000000000    0.1497690000000000    0.7500000000000000 Li
   0.3333333333333333    0.6666666666666666    0.7500000000000000 Y
   0.6666666666666666    0.3333333333333333    0.2500000000000000 Y
