Li6 Y2
1.0
      5.2544750240       0.0000000000       0.0000000000
     -2.6272373333       4.5505089575       0.0000000000
      0.0000000000       0.0000000000       3.9942288000
Li Y
6 2
direct
   0.1497690000000000    0.2995390000000000    0.2500000000000000 Li
   0.7004610000000000    0.8502310000000000    0.2500000000000000 Li
   0.1497690000000000    0.8502310000000000    0.2500000000000000 Li
   0.8502310000000000    0.7004610000000000    0.7500000000000000 Li
   0.2995390000000000    0.1497690000000000    0.7500000000000000 Li
   0.8502310000000000    0.1497690000000000    0.7500000000000000 Li
   0.3333333333333333    0.6666666666666666    0.7500000000000000 Y
   0.6666666666666666    0.3333333333333333    0.2500000000000000 Y
