Li2 Er6
1.0
      6.2234434440       0.0000000000       0.0000000000
     -3.1117209629       5.3896605598       0.0000000000
      0.0000000000       0.0000000000       4.9464486000
Li Er
2 6
direct
   0.6666666666666666    0.3333333333333333    0.2500000000000000 Li
   0.3333333333333333    0.6666666666666666    0.7500000000000000 Li
   0.8314240000000001    0.1685760000000000    0.7500000000000000 Er
   0.3371510000000000    0.1685760000000000    0.7500000000000000 Er
   0.8314240000000001    0.6628490000000000    0.7500000000000000 Er
   0.1685760000000000    0.8314240000000001    0.2500000000000000 Er
   0.6628490000000000    0.8314240000000001    0.2500000000000000 Er
   0.1685760000000000    0.3371510000000000    0.2500000000000000 Er
