Eu1 Zn5
1.0
      5.1078384285       0.0000000000       0.0000142950
     -2.5538316556       4.4235466906      -0.0000096904
      0.0000000000       0.0000000000       4.0093454200
Eu Zn
1 5
direct
   0.0000000000000000    0.0000000000000000    0.0000000000000000 Eu
   0.0000000000000000    0.5000000000000000    0.5000000000000000 Zn
   0.3333333333333333    0.6666666666666666    0.0000000000000000 Zn
   0.6666666666666666    0.3333333333333333    0.0000000000000000 Zn
   0.5000000000000000    0.0000000000000000    0.5000000000000000 Zn
   0.5000000000000000    0.5000000000000000    0.5000000000000000 Zn
