Eu1 Zn5
1.0
      4.0325040225       0.0000000000       0.0000112855
     -2.0161828860       3.4922737031      -0.0000076503
      0.0000000000       0.0000000000       3.1652727000
Eu Zn
1 5
direct
   0.0000000000000000    0.0000000000000000    0.0000000000000000 Eu
   0.0000000000000000    0.5000000000000000    0.5000000000000000 Zn
   0.3333333333333333    0.6666666666666666    0.0000000000000000 Zn
   0.6666666666666666    0.3333333333333333    0.0000000000000000 Zn
   0.5000000000000000    0.0000000000000000    0.5000000000000000 Zn
   0.5000000000000000    0.5000000000000000    0.5000000000000000 Zn
