Li3 B1
1.0
      3.0883411927       0.0000000000      -1.9237251770
     -0.9520967889       2.9379181450      -1.9237251770
      0.0000000000       0.0000000000       3.6384845580
Li B
3 1
direct
   0.7500000000000000    0.2500000000000000    0.5000000000000000 Li
   0.2500000000000000    0.7500000000000000    0.5000000000000000 Li
   0.5000000000000000    0.5000000000000000    0.0000000000000000 Li
   0.0000000000000000    0.0000000000000000    0.0000000000000000 B
