Li3 B1
1.0
      2.7451921713       0.0000000000      -1.7099779351
     -0.8463082568       2.6114827956      -1.7099779351
      0.0000000000       0.0000000000       3.2342084960
Li B
3 1
direct
   0.7500000000000000    0.2500000000000000    0.5000000000000000 Li
   0.2500000000000000    0.7500000000000000    0.5000000000000000 Li
   0.5000000000000000    0.5000000000000000    0.0000000000000000 Li
   0.0000000000000000    0.0000000000000000    0.0000000000000000 B
