Li3 B1
1.0
      2.9167666820       0.0000000000      -1.8168515560
     -0.8992025228       2.7747004703      -1.8168515560
      0.0000000000       0.0000000000       3.4363465270
Li B
3 1
direct
   0.7500000000000000    0.2500000000000000    0.5000000000000000 Li
   0.2500000000000000    0.7500000000000000    0.5000000000000000 Li
   0.5000000000000000    0.5000000000000000    0.0000000000000000 Li
   0.0000000000000000    0.0000000000000000    0.0000000000000000 B
