Mg2 Te2
1.0
      3.5823458675       0.0000000000       0.0000000000
     -1.7911733629       3.1019501347       0.0000000000
      0.0000000000       0.0000000000       5.8327950130
Mg Te
2 2
direct
   0.0000000000000000    0.0000000000000000    0.5000000000000000 Mg
   0.0000000000000000    0.0000000000000000    0.0000000000000000 Mg
   0.3333333333333333    0.6666666666666666    0.2500000000000000 Te
   0.6666666666666666    0.3333333333333333    0.7500000000000000 Te
