Mg2 Te2
1.0
      3.3716196400       0.0000000000       0.0000000000
     -1.6858102239       2.9194824797       0.0000000000
      0.0000000000       0.0000000000       5.4896894240
Mg Te
2 2
direct
   0.0000000000000000    0.0000000000000000    0.5000000000000000 Mg
   0.0000000000000000    0.0000000000000000    0.0000000000000000 Mg
   0.3333333333333333    0.6666666666666666    0.2500000000000000 Te
   0.6666666666666666    0.3333333333333333    0.7500000000000000 Te
