Mg2 Te2
1.0
      4.0037983225       0.0000000000       0.0000000000
     -2.0018996408       3.4668854446       0.0000000000
      0.0000000000       0.0000000000       6.5190061910
Mg Te
2 2
direct
   0.0000000000000000    0.0000000000000000    0.5000000000000000 Mg
   0.0000000000000000    0.0000000000000000    0.0000000000000000 Mg
   0.3333333333333333    0.6666666666666666    0.2500000000000000 Te
   0.6666666666666666    0.3333333333333333    0.7500000000000000 Te
