K3 Ba1
1.0
      4.6624235606       0.0000000000      -4.8952778649
     -0.7460466709       4.6023480772      -4.8952778649
      0.0000000000       0.0000000000       6.7603209120
K Ba
3 1
direct
   0.7500000000000000    0.2500000000000000    0.5000000000000000 K
   0.2500000000000000    0.7500000000000000    0.5000000000000000 K
   0.5000000000000000    0.5000000000000000    0.0000000000000000 K
   0.0000000000000000    0.0000000000000000    0.0000000000000000 Ba
