K3 Ba1
1.0
      4.9538250332       0.0000000000      -5.2012327314
     -0.7926745879       4.8899948320      -5.2012327314
      0.0000000000       0.0000000000       7.1828409690
K Ba
3 1
direct
   0.7500000000000000    0.2500000000000000    0.5000000000000000 K
   0.2500000000000000    0.7500000000000000    0.5000000000000000 K
   0.5000000000000000    0.5000000000000000    0.0000000000000000 K
   0.0000000000000000    0.0000000000000000    0.0000000000000000 Ba
