K3 Ba1
1.0
      5.5366279783       0.0000000000      -5.8131424646
     -0.8859304218       5.4652883417      -5.8131424646
      0.0000000000       0.0000000000       8.0278810830
K Ba
3 1
direct
   0.7500000000000000    0.2500000000000000    0.5000000000000000 K
   0.2500000000000000    0.7500000000000000    0.5000000000000000 K
   0.5000000000000000    0.5000000000000000    0.0000000000000000 K
   0.0000000000000000    0.0000000000000000    0.0000000000000000 Ba
