K3 Ba1
1.0
      4.3710220881       0.0000000000      -4.5893229983
     -0.6994187540       4.3147013224      -4.5893229983
      0.0000000000       0.0000000000       6.3378008550
K Ba
3 1
direct
   0.7500000000000000    0.2500000000000000    0.5000000000000000 K
   0.2500000000000000    0.7500000000000000    0.5000000000000000 K
   0.5000000000000000    0.5000000000000000    0.0000000000000000 K
   0.0000000000000000    0.0000000000000000    0.0000000000000000 Ba
