K3 Ba1
1.0
      5.2452265057       0.0000000000      -5.5071875980
     -0.8393025048       5.1776415868      -5.5071875980
      0.0000000000       0.0000000000       7.6053610260
K Ba
3 1
direct
   0.7500000000000000    0.2500000000000000    0.5000000000000000 K
   0.2500000000000000    0.7500000000000000    0.5000000000000000 K
   0.5000000000000000    0.5000000000000000    0.0000000000000000 K
   0.0000000000000000    0.0000000000000000    0.0000000000000000 Ba
