Li1 Cl1
1.0
      2.6464335772       0.0000000000       1.5279184675
      0.8821445253       2.4950812760       1.5279184668
      0.0000000000       0.0000000000       3.0558386380
Li Cl
1 1
direct
   0.0000000000000000    0.0000000000000000    0.0000000000000000 Li
   0.5000000000000000    0.5000000000000000    0.5000000000000000 Cl
