Li1 Cl1
1.0
   3.1134512672473820    0.0000000000000000    1.7975511382376972
   1.0378170886339941    2.9353897364762567    1.7975511374610762
   0.0000000000000000    0.0000000000000000    3.5951042800000002
Li Cl
1 1
direct
   0.0000000000000000    0.0000000000000000    0.0000000000000000 Li
   0.5000000000000000    0.5000000000000000    0.5000000000000000 Cl
