Mn2 S2
1.0
      3.5582193630       0.0000000000       0.0000000000
      1.7791105851       3.0815085768       0.0000000000
      0.0000000000       0.0000000000       5.7082759740
Mn S
2 2
direct
   0.6666666666666666    0.6666666666666666    0.0011553300000000 Mn
   0.3333333333333333    0.3333333333333333    0.5011385600000000 Mn
   0.3333333333333333    0.3333333333333333    0.8738456999999999 S
   0.6666666666666666    0.6666666666666666    0.3738594000000000 S
