Mn2 S2
1.0
      3.3605405095       0.0000000000       0.0000000000
      1.6802711081       2.9103136558       0.0000000000
      0.0000000000       0.0000000000       5.3911495310
Mn S
2 2
direct
   0.6666666666666666    0.6666666666666666    0.0011553300000000 Mn
   0.3333333333333333    0.3333333333333333    0.5011385600000000 Mn
   0.3333333333333333    0.3333333333333333    0.8738456999999999 S
   0.6666666666666666    0.6666666666666666    0.3738594000000000 S
