Mn2 S2
1.0
      3.7558982165       0.0000000000       0.0000000000
      1.8779500620       3.2527034977       0.0000000000
      0.0000000000       0.0000000000       6.0254024170
Mn S
2 2
direct
   0.6666666666666666    0.6666666666666666    0.0011553300000000 Mn
   0.3333333333333333    0.3333333333333333    0.5011385600000000 Mn
   0.3333333333333333    0.3333333333333333    0.8738456999999999 S
   0.6666666666666666    0.6666666666666666    0.3738594000000000 S
