Mn2 S2
1.0
      3.1628616560       0.0000000000       0.0000000000
      1.5814316312       2.7391187349       0.0000000000
      0.0000000000       0.0000000000       5.0740230880
Mn S
2 2
direct
   0.6666666666666666    0.6666666666666666    0.0011553300000000 Mn
   0.3333333333333333    0.3333333333333333    0.5011385600000000 Mn
   0.3333333333333333    0.3333333333333333    0.8738456999999999 S
   0.6666666666666666    0.6666666666666666    0.3738594000000000 S
