Cu1 Cl2
1.0
      3.8425508000       0.0000000000       0.0000000000
     -0.0000000000       3.8425508000       0.0000000000
      0.0000000000       0.0000000000       3.6700552000
Cu Cl
1 2
direct
   0.0000000000000000    0.0000000000000000    0.0000000000000000 Cu
   0.5000000000000000    0.0000000000000000    0.0000000000000000 Cl
   0.0000000000000000    0.5000000000000000    0.0000000000000000 Cl
