Cu1 Cl2
1.0
      4.0685832000       0.0000000000       0.0000000000
     -0.0000000000       4.0685832000       0.0000000000
      0.0000000000       0.0000000000       3.8859408000
Cu Cl
1 2
direct
   0.0000000000000000    0.0000000000000000    0.0000000000000000 Cu
   0.5000000000000000    0.0000000000000000    0.0000000000000000 Cl
   0.0000000000000000    0.5000000000000000    0.0000000000000000 Cl
