Mn1 Se1
1.0
      2.9007243009       0.0000000000       1.6747349800
      0.9669075413       2.7348296581       1.6747349802
      0.0000000000       0.0000000000       3.3494682800
Mn Se
1 1
direct
   0.0000000000000000    0.0000000000000000    0.0000000000000000 Mn
   0.2500000000000000    0.2500000000000000    0.2500000000000000 Se
