Mn1 Se1
1.0
      3.4446101074       0.0000000000       1.9887477888
      1.1482027053       3.2476102190       1.9887477890
      0.0000000000       0.0000000000       3.9774935825
Mn Se
1 1
direct
   0.0000000000000000    0.0000000000000000    0.0000000000000000 Mn
   0.2500000000000000    0.2500000000000000    0.2500000000000000 Se
