Mn1 Se1
1.0
      3.2633148386       0.0000000000       1.8840768525
      1.0877709840       3.0766833654       1.8840768527
      0.0000000000       0.0000000000       3.7681518150
Mn Se
1 1
direct
   0.0000000000000000    0.0000000000000000    0.0000000000000000 Mn
   0.2500000000000000    0.2500000000000000    0.2500000000000000 Se
