Mn1 Se1
1.0
      3.0820195698       0.0000000000       1.7794059163
      1.0273392627       2.9057565117       1.7794059164
      0.0000000000       0.0000000000       3.5588100475
Mn Se
1 1
direct
   0.0000000000000000    0.0000000000000000    0.0000000000000000 Mn
   0.2500000000000000    0.2500000000000000    0.2500000000000000 Se
