Mn1 Se1
1.0
      2.7194290321       0.0000000000       1.5700640438
      0.9064758200       2.5639028045       1.5700640439
      0.0000000000       0.0000000000       3.1401265125
Mn Se
1 1
direct
   0.0000000000000000    0.0000000000000000    0.0000000000000000 Mn
   0.2500000000000000    0.2500000000000000    0.2500000000000000 Se
