Tl3 Cu1
1.0
      3.5872546292       0.0000000000      -3.5562645100
     -0.6230576399       3.5327319389      -3.5562645100
      0.0000000000       0.0000000000       5.0512783570
Tl Cu
3 1
direct
   0.7500000000000000    0.2500000000000000    0.5000000000000000 Tl
   0.2500000000000000    0.7500000000000000    0.5000000000000000 Tl
   0.5000000000000000    0.5000000000000000    0.0000000000000000 Tl
   0.0000000000000000    0.0000000000000000    0.0000000000000000 Cu
