Tl3 Cu1
1.0
      3.1652246729       0.0000000000      -3.1378804500
     -0.5497567411       3.1171164167      -3.1378804500
      0.0000000000       0.0000000000       4.4570103150
Tl Cu
3 1
direct
   0.7500000000000000    0.2500000000000000    0.5000000000000000 Tl
   0.2500000000000000    0.7500000000000000    0.5000000000000000 Tl
   0.5000000000000000    0.5000000000000000    0.0000000000000000 Tl
   0.0000000000000000    0.0000000000000000    0.0000000000000000 Cu
