Tl3 Cu1
1.0
      3.7982696074       0.0000000000      -3.7654565400
     -0.6597080893       3.7405397001      -3.7654565400
      0.0000000000       0.0000000000       5.3484123780
Tl Cu
3 1
direct
   0.7500000000000000    0.2500000000000000    0.5000000000000000 Tl
   0.2500000000000000    0.7500000000000000    0.5000000000000000 Tl
   0.5000000000000000    0.5000000000000000    0.0000000000000000 Tl
   0.0000000000000000    0.0000000000000000    0.0000000000000000 Cu
