Tl3 Cu1
1.0
      3.3762396511       0.0000000000      -3.3470724800
     -0.5864071905       3.3249241778      -3.3470724800
      0.0000000000       0.0000000000       4.7541443360
Tl Cu
3 1
direct
   0.7500000000000000    0.2500000000000000    0.5000000000000000 Tl
   0.2500000000000000    0.7500000000000000    0.5000000000000000 Tl
   0.5000000000000000    0.5000000000000000    0.0000000000000000 Tl
   0.0000000000000000    0.0000000000000000    0.0000000000000000 Cu
