Tl3 Cu1
1.0
      4.0092845856       0.0000000000      -3.9746485700
     -0.6963585387       3.9483474612      -3.9746485700
      0.0000000000       0.0000000000       5.6455463990
Tl Cu
3 1
direct
   0.7500000000000000    0.2500000000000000    0.5000000000000000 Tl
   0.2500000000000000    0.7500000000000000    0.5000000000000000 Tl
   0.5000000000000000    0.5000000000000000    0.0000000000000000 Tl
   0.0000000000000000    0.0000000000000000    0.0000000000000000 Cu
