Li1 Rh3
1.0
      2.5917288413       0.0000000000      -2.3636580698
     -0.5050007267       2.5420528423      -2.3636580698
      0.0000000000       0.0000000000       3.5076969450
Li Rh
1 3
direct
   0.0000000000000000    0.0000000000000000    0.0000000000000000 Li
   0.7500000000000000    0.2500000000000000    0.5000000000000000 Rh
   0.2500000000000000    0.7500000000000000    0.5000000000000000 Rh
   0.5000000000000000    0.5000000000000000    0.0000000000000000 Rh
