Li1 Rh3
1.0
      3.1100746096       0.0000000000      -2.8363896838
     -0.6060008721       3.0504634107      -2.8363896838
      0.0000000000       0.0000000000       4.2092363340
Li Rh
1 3
direct
   0.0000000000000000    0.0000000000000000    0.0000000000000000 Li
   0.7500000000000000    0.2500000000000000    0.5000000000000000 Rh
   0.2500000000000000    0.7500000000000000    0.5000000000000000 Rh
   0.5000000000000000    0.5000000000000000    0.0000000000000000 Rh
