Ti1 Cu1
1.0
      2.4617184000       0.0000000000       0.0000000000
     -0.0000000000       2.4617184000       0.0000000000
      0.0000000000       0.0000000000       2.4617184000
Ti Cu
1 1
direct
   0.0000000000000000    0.0000000000000000    0.0000000000000000 Ti
   0.5000000000000000    0.5000000000000000    0.5000000000000000 Cu
