Li1 Y3
1.0
      3.7284916258       0.0000000000      -3.8334213030
     -0.6149191675       3.6774344619      -3.8334213030
      0.0000000000       0.0000000000       5.3475946640
Li Y
1 3
direct
   0.0000000000000000    0.0000000000000000    0.0000000000000000 Li
   0.7500000000000000    0.2500000000000000    0.5000000000000000 Y
   0.2500000000000000    0.7500000000000000    0.5000000000000000 Y
   0.5000000000000000    0.5000000000000000    0.0000000000000000 Y
