Li1 Y3
1.0
      3.9478146626       0.0000000000      -4.0589166738
     -0.6510908832       3.8937541361      -4.0589166738
      0.0000000000       0.0000000000       5.6621590560
Li Y
1 3
direct
   0.0000000000000000    0.0000000000000000    0.0000000000000000 Li
   0.7500000000000000    0.2500000000000000    0.5000000000000000 Y
   0.2500000000000000    0.7500000000000000    0.5000000000000000 Y
   0.5000000000000000    0.5000000000000000    0.0000000000000000 Y
