Li1 Y3
1.0
      3.2898455522       0.0000000000      -3.3824305615
     -0.5425757360       3.2447951134      -3.3824305615
      0.0000000000       0.0000000000       4.7184658800
Li Y
1 3
direct
   0.0000000000000000    0.0000000000000000    0.0000000000000000 Li
   0.7500000000000000    0.2500000000000000    0.5000000000000000 Y
   0.2500000000000000    0.7500000000000000    0.5000000000000000 Y
   0.5000000000000000    0.5000000000000000    0.0000000000000000 Y
