Li1 Y3
1.0
      3.5091685890       0.0000000000      -3.6079259323
     -0.5787474517       3.4611147876      -3.6079259323
      0.0000000000       0.0000000000       5.0330302720
Li Y
1 3
direct
   0.0000000000000000    0.0000000000000000    0.0000000000000000 Li
   0.7500000000000000    0.2500000000000000    0.5000000000000000 Y
   0.2500000000000000    0.7500000000000000    0.5000000000000000 Y
   0.5000000000000000    0.5000000000000000    0.0000000000000000 Y
