K3 Cu1
1.0
      4.6505800000       0.0000000000       0.0000000000
     -0.0000000000       4.6505800000       0.0000000000
      0.0000000000       0.0000000000       4.6505800000
K Cu
3 1
direct
   0.5000000000000000    0.0000000000000000    0.5000000000000000 K
   0.5000000000000000    0.5000000000000000    0.0000000000000000 K
   0.0000000000000000    0.5000000000000000    0.5000000000000000 K
   0.0000000000000000    0.0000000000000000    0.0000000000000000 Cu
