K1 Sr3
1.0
      4.1741139810       0.0000000000      -3.9441606711
     -0.7750304809       4.1015308459      -3.9441606711
      0.0000000000       0.0000000000       5.7427894725
K Sr
1 3
direct
   0.0000000000000000    0.0000000000000000    0.0000000000000000 K
   0.7500000000000000    0.2500000000000000    0.5000000000000000 Sr
   0.2500000000000000    0.7500000000000000    0.5000000000000000 Sr
   0.5000000000000000    0.5000000000000000    0.0000000000000000 Sr
