K1 Sr3
1.0
      5.0089367772       0.0000000000      -4.7329928053
     -0.9300365771       4.9218370151      -4.7329928053
      0.0000000000       0.0000000000       6.8913473670
K Sr
1 3
direct
   0.0000000000000000    0.0000000000000000    0.0000000000000000 K
   0.7500000000000000    0.2500000000000000    0.5000000000000000 Sr
   0.2500000000000000    0.7500000000000000    0.5000000000000000 Sr
   0.5000000000000000    0.5000000000000000    0.0000000000000000 Sr
