K1 Sr3
1.0
      4.4523882464       0.0000000000      -4.2071047158
     -0.8266991796       4.3749662356      -4.2071047158
      0.0000000000       0.0000000000       6.1256421040
K Sr
1 3
direct
   0.0000000000000000    0.0000000000000000    0.0000000000000000 K
   0.7500000000000000    0.2500000000000000    0.5000000000000000 Sr
   0.2500000000000000    0.7500000000000000    0.5000000000000000 Sr
   0.5000000000000000    0.5000000000000000    0.0000000000000000 Sr
