K1 Sr3
1.0
      4.7306625118       0.0000000000      -4.4700487606
     -0.8783678783       4.6484016253      -4.4700487606
      0.0000000000       0.0000000000       6.5084947355
K Sr
1 3
direct
   0.0000000000000000    0.0000000000000000    0.0000000000000000 K
   0.7500000000000000    0.2500000000000000    0.5000000000000000 Sr
   0.2500000000000000    0.7500000000000000    0.5000000000000000 Sr
   0.5000000000000000    0.5000000000000000    0.0000000000000000 Sr
