K1 Sr3
1.0
      5.2872110426       0.0000000000      -4.9959368500
     -0.9817052758       5.1952724048      -4.9959368500
      0.0000000000       0.0000000000       7.2741999985
K Sr
1 3
direct
   0.0000000000000000    0.0000000000000000    0.0000000000000000 K
   0.7500000000000000    0.2500000000000000    0.5000000000000000 Sr
   0.2500000000000000    0.7500000000000000    0.5000000000000000 Sr
   0.5000000000000000    0.5000000000000000    0.0000000000000000 Sr
