Mn1 Cl2
1.0
      3.0046574958       0.0000000000       4.5723530156
      1.3678738760       2.6752363617       4.5723530965
      0.0000000000       0.0000000000       5.4712323320
Mn Cl
1 2
direct
   0.0000000000000000    0.0000000000000000    0.0000000000000000 Mn
   0.7427978000000000    0.7427978000000000    0.7427978000000000 Cl
   0.2572022000000000    0.2572022000000000    0.2572022000000000 Cl
