Mn1 Cl2
1.0
      3.3581466129       0.0000000000       5.1102768998
      1.5288002143       2.9899700513       5.1102769902
      0.0000000000       0.0000000000       6.1149067240
Mn Cl
1 2
direct
   0.0000000000000000    0.0000000000000000    0.0000000000000000 Mn
   0.7427978000000000    0.7427978000000000    0.7427978000000000 Cl
   0.2572022000000000    0.2572022000000000    0.2572022000000000 Cl
