Mn1 Cl2
1.0
      3.1814020543       0.0000000000       4.8413149577
      1.4483370451       2.8326032065       4.8413150434
      0.0000000000       0.0000000000       5.7930695280
Mn Cl
1 2
direct
   0.0000000000000000    0.0000000000000000    0.0000000000000000 Mn
   0.7427978000000000    0.7427978000000000    0.7427978000000000 Cl
   0.2572022000000000    0.2572022000000000    0.2572022000000000 Cl
