Mn1 Cl2
1.0
      2.8279129372       0.0000000000       4.3033910735
      1.2874107068       2.5178695169       4.3033911497
      0.0000000000       0.0000000000       5.1493951360
Mn Cl
1 2
direct
   0.0000000000000000    0.0000000000000000    0.0000000000000000 Mn
   0.7427978000000000    0.7427978000000000    0.7427978000000000 Cl
   0.2572022000000000    0.2572022000000000    0.2572022000000000 Cl
