Mn1 Cl2
1.0
      2.6511683786       0.0000000000       4.0344291314
      1.2069475376       2.3605026720       4.0344292028
      0.0000000000       0.0000000000       4.8275579400
Mn Cl
1 2
direct
   0.0000000000000000    0.0000000000000000    0.0000000000000000 Mn
   0.7427978000000000    0.7427978000000000    0.7427978000000000 Cl
   0.2572022000000000    0.2572022000000000    0.2572022000000000 Cl
