K6 Na2
1.0
      8.2457890380       0.0000000000       0.0000000000
     -4.1228944480       7.1410628222       0.0000000000
      0.0000000000       0.0000000000       6.4932558210
K Na
6 2
direct
   0.8282548199999999    0.1717451800000000    0.7500000000000000 K
   0.3434903600000000    0.1717451800000000    0.7500000000000000 K
   0.8282548199999999    0.6565096400000000    0.7500000000000000 K
   0.1717451800000000    0.8282548199999999    0.2500000000000000 K
   0.6565096400000000    0.8282548199999999    0.2500000000000000 K
   0.1717451800000000    0.3434903600000000    0.2500000000000000 K
   0.6666666666666666    0.3333333333333333    0.2500000000000000 Na
   0.3333333333333333    0.6666666666666666    0.7500000000000000 Na
