K6 Na2
1.0
      7.3295902560       0.0000000000       0.0000000000
     -3.6647950649       6.3476113975       0.0000000000
      0.0000000000       0.0000000000       5.7717829520
K Na
6 2
direct
   0.8282548199999999    0.1717451800000000    0.7500000000000000 K
   0.3434903600000000    0.1717451800000000    0.7500000000000000 K
   0.8282548199999999    0.6565096400000000    0.7500000000000000 K
   0.1717451800000000    0.8282548199999999    0.2500000000000000 K
   0.6565096400000000    0.8282548199999999    0.2500000000000000 K
   0.1717451800000000    0.3434903600000000    0.2500000000000000 K
   0.6666666666666666    0.3333333333333333    0.2500000000000000 Na
   0.3333333333333333    0.6666666666666666    0.7500000000000000 Na
