Eu1 Cu1
1.0
      3.4455559500       0.0000000000       0.0000000000
     -0.0000000000       3.4455559500       0.0000000000
      0.0000000000       0.0000000000       3.4455559500
Eu Cu
1 1
direct
   0.5000000000000000    0.5000000000000000    0.5000000000000000 Eu
   0.0000000000000000    0.0000000000000000    0.0000000000000000 Cu
