Eu1 Cu1
1.0
      2.9015208000       0.0000000000       0.0000000000
     -0.0000000000       2.9015208000       0.0000000000
      0.0000000000       0.0000000000       2.9015208000
Eu Cu
1 1
direct
   0.5000000000000000    0.5000000000000000    0.5000000000000000 Eu
   0.0000000000000000    0.0000000000000000    0.0000000000000000 Cu
