Li2 Br2
1.0
      3.5188885820       0.0000000000       0.0000000000
     -1.7594407864       3.0474489285       0.0000000000
      0.0000000000       0.0000000000       5.6892977665
Li Br
2 2
direct
   0.0000000000000000    0.0000000000000000    0.3768752400000000 Li
   0.3333333333333333    0.6666666666666666    0.8768752399999999 Li
   0.0000000000000000    0.0000000000000000    0.9981227600000000 Br
   0.3333333333333333    0.6666666666666666    0.4981227600000000 Br
