Mg1 O1
1.0
      2.4398774591       0.0000000000       1.4086643507
      0.8132927996       2.3003383566       1.4086643559
      0.0000000000       0.0000000000       2.8173268305
Mg O
1 1
direct
   0.0000000000000000    0.0000000000000000    0.0000000000000000 Mg
   0.5000000000000000    0.5000000000000000    0.5000000000000000 O
