Mg1 O1
1.0
      2.1830482528       0.0000000000       1.2603838927
      0.7276830313       2.0581974770       1.2603838973
      0.0000000000       0.0000000000       2.5207661115
Mg O
1 1
direct
   0.0000000000000000    0.0000000000000000    0.0000000000000000 Mg
   0.5000000000000000    0.5000000000000000    0.5000000000000000 O
