Mg1 O1
1.0
      2.3114628560       0.0000000000       1.3345241217
      0.7704879154       2.1792679168       1.3345241266
      0.0000000000       0.0000000000       2.6690464710
Mg O
1 1
direct
   0.0000000000000000    0.0000000000000000    0.0000000000000000 Mg
   0.5000000000000000    0.5000000000000000    0.5000000000000000 O
