Mg1 O1
1.0
      1.9262190466       0.0000000000       1.1121034347
      0.6420732629       1.8160565973       1.1121034388
      0.0000000000       0.0000000000       2.2242053925
Mg O
1 1
direct
   0.0000000000000000    0.0000000000000000    0.0000000000000000 Mg
   0.5000000000000000    0.5000000000000000    0.5000000000000000 O
