Mg1 O1
1.0
      2.0546336497       0.0000000000       1.1862436637
      0.6848781471       1.9371270372       1.1862436681
      0.0000000000       0.0000000000       2.3724857520
Mg O
1 1
direct
   0.0000000000000000    0.0000000000000000    0.0000000000000000 Mg
   0.5000000000000000    0.5000000000000000    0.5000000000000000 O
