Cu2 Te2
1.0
      3.6761950500       0.0000000000       0.0000000000
     -0.0000000000       3.7073883000       0.0000000000
      0.0000000000       0.0000000000       5.1699076000
Cu Te
2 2
direct
   0.5000000000000000    0.2912700000000000    0.0000000000000000 Cu
   0.0000000000000000    0.7087300000000000    0.5000000000000000 Cu
   0.0000000000000000    0.7828240000000000    0.0000000000000000 Te
   0.5000000000000000    0.2171760000000000    0.5000000000000000 Te
