Cu2 Te2
1.0
      2.9022592500       0.0000000000       0.0000000000
     -0.0000000000       2.9268855000       0.0000000000
      0.0000000000       0.0000000000       4.0815060000
Cu Te
2 2
direct
   0.5000000000000000    0.2912700000000000    0.0000000000000000 Cu
   0.0000000000000000    0.7087300000000000    0.5000000000000000 Cu
   0.0000000000000000    0.7828240000000000    0.0000000000000000 Te
   0.5000000000000000    0.2171760000000000    0.5000000000000000 Te
