Li3 Pd1
1.0
      3.0552495496       0.0000000000      -2.5893219349
     -0.6558648606       2.9840226365      -2.5893219349
      0.0000000000       0.0000000000       4.0048892485
Li Pd
3 1
direct
   0.7500000000000000    0.2500000000000000    0.5000000000000000 Li
   0.2500000000000000    0.7500000000000000    0.5000000000000000 Li
   0.5000000000000000    0.5000000000000000    0.0000000000000000 Li
   0.0000000000000000    0.0000000000000000    0.0000000000000000 Pd
