Li2 Cu6
1.0
      4.8147744295       0.0000000000       0.0000000000
     -2.4073863545       4.1697174661       0.0000000000
      0.0000000000       0.0000000000       3.9534846220
Li Cu
2 6
direct
   0.6666666666666666    0.3333333333333333    0.2500000000000000 Li
   0.3333333333333333    0.6666666666666666    0.7500000000000000 Li
   0.8340673100000000    0.1659326900000000    0.7500000000000000 Cu
   0.3318653800000000    0.1659326900000000    0.7500000000000000 Cu
   0.8340673100000000    0.6681346200000000    0.7500000000000000 Cu
   0.1659326900000000    0.8340673100000000    0.2500000000000000 Cu
   0.6681346200000000    0.8340673100000000    0.2500000000000000 Cu
   0.1659326900000000    0.3318653800000000    0.2500000000000000 Cu
