K4 Tl8
1.0
      6.8700048873       0.0000000000       3.9663991710
      2.2900016291       6.4771027234       3.9663991710
      0.0000000000       0.0000000000       7.9327983420
K Tl
4 8
direct
   0.6250000000000000    0.6250000000000000    0.6250000000000000 K
   0.6250000000000000    0.6250000000000000    0.1250000000000000 K
   0.6250000000000000    0.1250000000000000    0.6250000000000000 K
   0.1250000000000000    0.6250000000000000    0.6250000000000000 K
   0.9066500000000000    0.9066500000000000    0.9066500000000000 Tl
   0.9066500000000000    0.9066500000000000    0.2800510000000000 Tl
   0.9066500000000000    0.2800510000000000    0.9066500000000000 Tl
   0.3433500000000000    0.3433500000000000    0.9699490000000000 Tl
   0.3433500000000000    0.3433500000000000    0.3433500000000000 Tl
   0.2800510000000000    0.9066500000000000    0.9066500000000000 Tl
   0.3433500000000000    0.9699490000000000    0.3433500000000000 Tl
   0.9699490000000000    0.3433500000000000    0.3433500000000000 Tl
