Li1 N3
1.0
      2.6538104938       0.0000000000       0.5967406221
      1.1993579912       2.3673303292       0.5967407524
      0.0000000000       0.0000000000       4.1141799960
Li N
1 3
direct
   0.0000000000000000    0.0000000000000000    0.0000000000000000 Li
   0.6154175800000000    0.6154175800000000    0.2591643000000000 N
   0.3845824200000000    0.3845824200000000    0.7408357000000000 N
   0.5000000000000000    0.5000000000000000    0.5000000000000000 N
