Li1 N3
1.0
      2.8099169935       0.0000000000       0.6318430116
      1.2699084613       2.5065850544       0.6318431496
      0.0000000000       0.0000000000       4.3561905840
Li N
1 3
direct
   0.0000000000000000    0.0000000000000000    0.0000000000000000 Li
   0.6154175800000000    0.6154175800000000    0.2591643000000000 N
   0.3845824200000000    0.3845824200000000    0.7408357000000000 N
   0.5000000000000000    0.5000000000000000    0.5000000000000000 N
