Li1 N3
1.0
      2.9660234931       0.0000000000       0.6669454011
      1.3404589313       2.6458397797       0.6669455468
      0.0000000000       0.0000000000       4.5982011720
Li N
1 3
direct
   0.0000000000000000    0.0000000000000000    0.0000000000000000 Li
   0.6154175800000000    0.6154175800000000    0.2591643000000000 N
   0.3845824200000000    0.3845824200000000    0.7408357000000000 N
   0.5000000000000000    0.5000000000000000    0.5000000000000000 N
