Li1 N3
1.0
      2.4977039942       0.0000000000       0.5616382325
      1.1288075211       2.2280756039       0.5616383552
      0.0000000000       0.0000000000       3.8721694080
Li N
1 3
direct
   0.0000000000000000    0.0000000000000000    0.0000000000000000 Li
   0.6154175800000000    0.6154175800000000    0.2591643000000000 N
   0.3845824200000000    0.3845824200000000    0.7408357000000000 N
   0.5000000000000000    0.5000000000000000    0.5000000000000000 N
