Li1 N3
1.0
      2.3415974945       0.0000000000       0.5265358430
      1.0582570511       2.0888208787       0.5265359580
      0.0000000000       0.0000000000       3.6301588200
Li N
1 3
direct
   0.0000000000000000    0.0000000000000000    0.0000000000000000 Li
   0.6154175800000000    0.6154175800000000    0.2591643000000000 N
   0.3845824200000000    0.3845824200000000    0.7408357000000000 N
   0.5000000000000000    0.5000000000000000    0.5000000000000000 N
