Li30 Si8
1.0
      6.8951709947       0.0000000000      -2.4378107367
     -3.4475858967       5.9713937786      -2.4378107365
      0.0000000000       0.0000000000       7.3134330160
Li Si
30 8
direct
   0.7250516500000000    0.3396063700000000    0.8103046000000000 Li
   0.8750000000000000    0.1250000000000000    0.7500000000000000 Li
   0.8103046000000000    0.7250516500000000    0.3396063700000000 Li
   0.5852539400000000    0.6145557100000000    0.7749483500000000 Li
   0.6896954000000000    0.0293007700000000    0.9147460600000000 Li
   0.1145557100000000    0.0852539400000000    0.2749483500000000 Li
   0.0293007700000000    0.9147460600000000    0.6896954000000000 Li
   0.0852539400000000    0.2749483500000000    0.1145557100000000 Li
   0.5293007700000000    0.1896954000000000    0.4147460600000000 Li
   0.6145557100000000    0.7749483500000000    0.5852539400000000 Li
   0.9147460600000000    0.6896954000000000    0.0293007700000000 Li
   0.4147460600000000    0.5293007700000000    0.1896954000000000 Li
   0.2500000000000000    0.6250000000000000    0.3750000000000000 Li
   0.8854442900000000    0.4706992300000000    0.1603936300000000 Li
   0.7500000000000000    0.8750000000000000    0.1250000000000000 Li
   0.6603936300000000    0.9706992300000000    0.3854442900000000 Li
   0.1896954000000000    0.4147460600000000    0.5293007700000000 Li
   0.2749483500000000    0.1145557100000000    0.0852539400000000 Li
   0.2250516500000000    0.3103046000000000    0.8396063700000000 Li
   0.1250000000000000    0.7500000000000000    0.8750000000000000 Li
   0.1603936300000000    0.8854442900000000    0.4706992300000000 Li
   0.7749483500000000    0.5852539400000000    0.6145557100000000 Li
   0.9706992300000000    0.3854442900000000    0.6603936300000000 Li
   0.3396063700000000    0.8103046000000000    0.7250516500000000 Li
   0.3854442900000000    0.6603936300000000    0.9706992300000000 Li
   0.4706992300000000    0.1603936300000000    0.8854442900000000 Li
   0.8396063700000000    0.2250516500000000    0.3103046000000000 Li
   0.6250000000000000    0.3750000000000000    0.2500000000000000 Li
   0.3103046000000000    0.8396063700000000    0.2250516500000000 Li
   0.3750000000000000    0.2500000000000000    0.6250000000000000 Li
   0.5854449300000000    0.5000000000000000    0.0000000000000000 Si
   0.0000000000000000    0.5854449300000000    0.5000000000000000 Si
   0.0854449300000000    0.5000000000000000    0.0000000000000000 Si
   0.5000000000000000    0.0000000000000000    0.0854449300000000 Si
   0.5000000000000000    0.0000000000000000    0.5854449300000000 Si
   0.0000000000000000    0.0854449300000000    0.5000000000000000 Si
   0.4145550700000000    0.4145550700000000    0.4145550700000000 Si
   0.9145550700000000    0.9145550700000000    0.9145550700000000 Si
