Li2 Mg2
1.0
      2.3521648425       0.0000000000       0.0000000000
     -1.1760831664       2.0370340773       0.0000000000
      0.0000000000       0.0000000000       7.5879190875
Li Mg
2 2
direct
   0.6666666666666666    0.3333333333333333    0.6243855500000000 Li
   0.3333333333333333    0.6666666666666666    0.3756144500000000 Li
   0.3333333333333333    0.6666666666666666    0.8707794100000000 Mg
   0.6666666666666666    0.3333333333333333    0.1292205900000000 Mg
