Mn1 Au1
1.0
      3.0292887500       0.0000000000       0.0000000000
     -0.0000000000       3.0292887500       0.0000000000
      0.0000000000       0.0000000000       3.1443698500
Mn Au
1 1
direct
   0.5000000000000000    0.5000000000000000    0.5000000000000000 Mn
   0.0000000000000000    0.0000000000000000    0.0000000000000000 Au
