Mn1 Au1
1.0
      2.7104162500       0.0000000000       0.0000000000
     -0.0000000000       2.7104162500       0.0000000000
      0.0000000000       0.0000000000       2.8133835500
Mn Au
1 1
direct
   0.5000000000000000    0.5000000000000000    0.5000000000000000 Mn
   0.0000000000000000    0.0000000000000000    0.0000000000000000 Au
