Ba2 Zn26
1.0
      5.6082647955       0.0000000000       3.2379336318
      1.8694210944       5.2875232119       3.2379336298
      0.0000000000       0.0000000000       6.4758664950
Ba Zn
2 26
direct
   0.7500000000000000    0.7500000000000000    0.7500000000000000 Ba
   0.2500000000000000    0.2500000000000000    0.2500000000000000 Ba
   0.7982314500000000    0.5589668100000000    0.4410331900000000 Zn
   0.9410331900000000    0.7017685500000000    0.0589668100000000 Zn
   0.4410331900000000    0.7982314500000000    0.5589668100000000 Zn
   0.5589668100000000    0.4410331900000000    0.7982314500000000 Zn
   0.7982314500000000    0.4410331900000000    0.2017685500000000 Zn
   0.0589668100000000    0.9410331900000000    0.7017685500000000 Zn
   0.5589668100000000    0.2017685500000000    0.4410331900000000 Zn
   0.9410331900000000    0.2982314500000000    0.7017685500000000 Zn
   0.2017685500000000    0.7982314500000000    0.4410331900000000 Zn
   0.7017685500000000    0.0589668100000000    0.9410331900000000 Zn
   0.2982314500000000    0.9410331900000000    0.0589668100000000 Zn
   0.2982314500000000    0.7017685500000000    0.9410331900000000 Zn
   0.2982314500000000    0.0589668100000000    0.7017685500000000 Zn
   0.4410331900000000    0.5589668100000000    0.2017685500000000 Zn
   0.4410331900000000    0.2017685500000000    0.7982314500000000 Zn
   0.7017685500000000    0.9410331900000000    0.2982314500000000 Zn
   0.7017685500000000    0.2982314500000000    0.0589668100000000 Zn
   0.7982314500000000    0.2017685500000000    0.5589668100000000 Zn
   0.9410331900000000    0.0589668100000000    0.2982314500000000 Zn
   0.5589668100000000    0.7982314500000000    0.2017685500000000 Zn
   0.0589668100000000    0.7017685500000000    0.2982314500000000 Zn
   0.2017685500000000    0.5589668100000000    0.7982314500000000 Zn
   0.0589668100000000    0.2982314500000000    0.9410331900000000 Zn
   0.2017685500000000    0.4410331900000000    0.5589668100000000 Zn
   0.0000000000000000    0.0000000000000000    0.0000000000000000 Zn
   0.5000000000000000    0.5000000000000000    0.5000000000000000 Zn
