Li1 Mg1
1.0
      2.3313731400       0.0000000000       0.0000000000
     -1.1656931230       2.0190245816       0.0000000000
      0.0000000000       0.0000000000       3.7691007600
Li Mg
1 1
direct
   0.0000000000000000    0.0000000000000000    0.0000000000000000 Li
   0.6666666666666666    0.3333333333333333    0.5000000000000000 Mg
