Cr3 Cu1
1.0
      2.7014385000       0.0000000000       0.0000000000
     -0.0000000000       2.7014385000       0.0000000000
      0.0000000000       0.0000000000       2.7014385000
Cr Cu
3 1
direct
   0.0000000000000000    0.5000000000000000    0.5000000000000000 Cr
   0.5000000000000000    0.0000000000000000    0.5000000000000000 Cr
   0.5000000000000000    0.5000000000000000    0.0000000000000000 Cr
   0.0000000000000000    0.0000000000000000    0.0000000000000000 Cu
