Cr3 Cu1
1.0
      3.2417262000       0.0000000000       0.0000000000
     -0.0000000000       3.2417262000       0.0000000000
      0.0000000000       0.0000000000       3.2417262000
Cr Cu
3 1
direct
   0.0000000000000000    0.5000000000000000    0.5000000000000000 Cr
   0.5000000000000000    0.0000000000000000    0.5000000000000000 Cr
   0.5000000000000000    0.5000000000000000    0.0000000000000000 Cr
   0.0000000000000000    0.0000000000000000    0.0000000000000000 Cu
