Cr3 Cu1
1.0
      2.8815344000       0.0000000000       0.0000000000
     -0.0000000000       2.8815344000       0.0000000000
      0.0000000000       0.0000000000       2.8815344000
Cr Cu
3 1
direct
   0.0000000000000000    0.5000000000000000    0.5000000000000000 Cr
   0.5000000000000000    0.0000000000000000    0.5000000000000000 Cr
   0.5000000000000000    0.5000000000000000    0.0000000000000000 Cr
   0.0000000000000000    0.0000000000000000    0.0000000000000000 Cu
