Er1 Zn1
1.0
      2.8063186560       0.0000000000       0.0000000000
     -0.0000000000       2.8063186560       0.0000000000
      0.0000000000       0.0000000000       2.8063186560
Er Zn
1 1
direct
   0.0000000000000000    0.0000000000000000    0.0000000000000000 Er
   0.5000000000000000    0.5000000000000000    0.5000000000000000 Zn
