Er1 Zn1
1.0
      3.1571084880       0.0000000000       0.0000000000
     -0.0000000000       3.1571084880       0.0000000000
      0.0000000000       0.0000000000       3.1571084880
Er Zn
1 1
direct
   0.0000000000000000    0.0000000000000000    0.0000000000000000 Er
   0.5000000000000000    0.5000000000000000    0.5000000000000000 Zn
