Cu1 I1
1.0
      2.9795295002       0.0000000000       1.7202321590
      0.9931765001       2.8091273525       1.7202321590
      0.0000000000       0.0000000000       3.4404643180
Cu I
1 1
direct
   0.0000000000000000    0.0000000000000000    0.0000000000000000 Cu
   0.5000000000000000    0.5000000000000000    0.5000000000000000 I
