Cu1 I1
1.0
      3.3300623826       0.0000000000       1.9226124130
      1.1100207942       3.1396129233       1.9226124130
      0.0000000000       0.0000000000       3.8452248260
Cu I
1 1
direct
   0.0000000000000000    0.0000000000000000    0.0000000000000000 Cu
   0.5000000000000000    0.5000000000000000    0.5000000000000000 I
