Cu1 I1
1.0
      2.6289966178       0.0000000000       1.5178519050
      0.8763322059       2.4786417816       1.5178519050
      0.0000000000       0.0000000000       3.0357038100
Cu I
1 1
direct
   0.0000000000000000    0.0000000000000000    0.0000000000000000 Cu
   0.5000000000000000    0.5000000000000000    0.5000000000000000 I
