Cu1 I1
1.0
      2.8042630590       0.0000000000       1.6190420320
      0.9347543530       2.6438845670       1.6190420320
      0.0000000000       0.0000000000       3.2380840640
Cu I
1 1
direct
   0.0000000000000000    0.0000000000000000    0.0000000000000000 Cu
   0.5000000000000000    0.5000000000000000    0.5000000000000000 I
