Cu1 I1
1.0
      3.1547959414       0.0000000000       1.8214222860
      1.0515986471       2.9743701379       1.8214222860
      0.0000000000       0.0000000000       3.6428445720
Cu I
1 1
direct
   0.0000000000000000    0.0000000000000000    0.0000000000000000 Cu
   0.5000000000000000    0.5000000000000000    0.5000000000000000 I
