Mn3 B4
1.0
      2.5864687393       0.0000000000      -0.5756074759
     -0.1335887257       2.6352500260      -0.6002726041
      0.0000000000       0.0000000000       6.0988992750
Mn B
3 4
direct
   0.1874120300000000    0.1873338900000000    0.3748220700000000 Mn
   0.8125879700000000    0.8126661100000000    0.6251779300000000 Mn
   0.5000000000000000    0.0000000000000000    0.0000000000000000 Mn
   0.9334260400000000    0.4333932000000000    0.8668520800000000 B
   0.0665739600000000    0.5666068000000000    0.1331479200000000 B
   0.3584147300000000    0.3582954400000000    0.7168314600000000 B
   0.6415852700000000    0.6417045600000000    0.2831685400000000 B
