Mn3 B4
1.0
      2.1553906161       0.0000000000      -0.4796728966
     -0.1113239381       2.1960416883      -0.5002271701
      0.0000000000       0.0000000000       5.0824160625
Mn B
3 4
direct
   0.1874120300000000    0.1873338900000000    0.3748220700000000 Mn
   0.8125879700000000    0.8126661100000000    0.6251779300000000 Mn
   0.5000000000000000    0.0000000000000000    0.0000000000000000 Mn
   0.9334260400000000    0.4333932000000000    0.8668520800000000 B
   0.0665739600000000    0.5666068000000000    0.1331479200000000 B
   0.3584147300000000    0.3582954400000000    0.7168314600000000 B
   0.6415852700000000    0.6417045600000000    0.2831685400000000 B
