K1 Li3
1.0
      3.6104544357       0.0000000000      -3.5196555825
     -0.6420281592       3.5529116334      -3.5196555825
      0.0000000000       0.0000000000       5.0421579360
K Li
1 3
direct
   0.0000000000000000    0.0000000000000000    0.0000000000000000 K
   0.7500000000000000    0.2500000000000000    0.5000000000000000 Li
   0.2500000000000000    0.7500000000000000    0.5000000000000000 Li
   0.5000000000000000    0.5000000000000000    0.0000000000000000 Li
