K1 Li3
1.0
      3.8361078379       0.0000000000      -3.7396340564
     -0.6821549192       3.7749686105      -3.7396340564
      0.0000000000       0.0000000000       5.3572928070
K Li
1 3
direct
   0.0000000000000000    0.0000000000000000    0.0000000000000000 K
   0.7500000000000000    0.2500000000000000    0.5000000000000000 Li
   0.2500000000000000    0.7500000000000000    0.5000000000000000 Li
   0.5000000000000000    0.5000000000000000    0.0000000000000000 Li
