Mn8 As6
1.0
      6.2306197184       0.0000000000       1.4790283732
      5.3256391555       3.2339124387       1.4790283732
      0.0000000000       0.0000000000       8.9296137680
Mn As
8 6
direct
   0.7827640000000000    0.7827640000000000    0.1659520000000000 Mn
   0.2172360000000000    0.2172360000000000    0.8340480000000000 Mn
   0.6569420000000000    0.6569420000000000    0.5497670000000000 Mn
   0.3430580000000000    0.3430580000000000    0.4502330000000000 Mn
   0.5678390000000000    0.5678390000000000    0.2876360000000000 Mn
   0.4321610000000000    0.4321610000000000    0.7123640000000000 Mn
   0.0000000000000000    0.0000000000000000    0.5000000000000000 Mn
   0.0000000000000000    0.0000000000000000    0.0000000000000000 Mn
   0.9375190000000000    0.9375190000000000    0.2732930000000000 As
   0.0624810000000000    0.0624810000000000    0.7267070000000000 As
   0.8134790000000000    0.8134790000000000    0.6534160000000000 As
   0.1865210000000000    0.1865210000000000    0.3465840000000000 As
   0.6383529999999999    0.6383529999999999    0.0207700000000000 As
   0.3616470000000000    0.3616470000000000    0.9792300000000000 As
