Li1 Mg3
1.0
      2.9888649105       0.0000000000       0.0000000000
     -1.4944478745       2.5884240386       0.0000000000
      0.0000000000       0.0000000000       9.6155204085
Li Mg
1 3
direct
   0.6666666666666666    0.3333333333333333    0.5000000000000000 Li
   0.6666666666666666    0.3333333333333333    0.0000000000000000 Mg
   0.0000000000000000    0.0000000000000000    0.7425651000000000 Mg
   0.0000000000000000    0.0000000000000000    0.2574349000000000 Mg
