K3 Tb1
1.0
      4.7643378912       0.0000000000       2.7506917640
      1.5881126304       4.4918608410       2.7506917640
      0.0000000000       0.0000000000       5.5013835280
K Tb
3 1
direct
   0.2500000000000000    0.2500000000000000    0.2500000000000000 K
   0.7500000000000000    0.7500000000000000    0.7500000000000000 K
   0.5000000000000000    0.5000000000000000    0.5000000000000000 K
   0.0000000000000000    0.0000000000000000    0.0000000000000000 Tb
