K3 Tb1
1.0
      5.3598801276       0.0000000000       3.0945282345
      1.7866267092       5.0533434461       3.0945282345
      0.0000000000       0.0000000000       6.1890564690
K Tb
3 1
direct
   0.2500000000000000    0.2500000000000000    0.2500000000000000 K
   0.7500000000000000    0.7500000000000000    0.7500000000000000 K
   0.5000000000000000    0.5000000000000000    0.5000000000000000 K
   0.0000000000000000    0.0000000000000000    0.0000000000000000 Tb
