K3 Tb1
1.0
      5.0621090094       0.0000000000       2.9226099993
      1.6873696698       4.7726021435       2.9226099993
      0.0000000000       0.0000000000       5.8452199985
K Tb
3 1
direct
   0.2500000000000000    0.2500000000000000    0.2500000000000000 K
   0.7500000000000000    0.7500000000000000    0.7500000000000000 K
   0.5000000000000000    0.5000000000000000    0.5000000000000000 K
   0.0000000000000000    0.0000000000000000    0.0000000000000000 Tb
