K3 Tb1
1.0
      5.6576512458       0.0000000000       3.2664464698
      1.8858837486       5.3340847487       3.2664464698
      0.0000000000       0.0000000000       6.5328929395
K Tb
3 1
direct
   0.2500000000000000    0.2500000000000000    0.2500000000000000 K
   0.7500000000000000    0.7500000000000000    0.7500000000000000 K
   0.5000000000000000    0.5000000000000000    0.5000000000000000 K
   0.0000000000000000    0.0000000000000000    0.0000000000000000 Tb
