K3 Tb1
1.0
      4.4665667730       0.0000000000       2.5787735288
      1.4888555910       4.2111195384       2.5787735288
      0.0000000000       0.0000000000       5.1575470575
K Tb
3 1
direct
   0.2500000000000000    0.2500000000000000    0.2500000000000000 K
   0.7500000000000000    0.7500000000000000    0.7500000000000000 K
   0.5000000000000000    0.5000000000000000    0.5000000000000000 K
   0.0000000000000000    0.0000000000000000    0.0000000000000000 Tb
