K1 Mg7
1.0
      5.4105886720       0.0000000000       0.0000000000
     -2.7052942060       4.6857073145       0.0000000000
      0.0000000000       0.0000000000       4.3156176000
K Mg
1 7
direct
   0.0000000000000000    0.0000000000000000    0.0000000000000000 K
   0.0041920000000000    0.5020960000000000    0.0000000000000000 Mg
   0.4979040000000000    0.5020960000000000    0.0000000000000000 Mg
   0.4979040000000000    0.9958080000000000    0.0000000000000000 Mg
   0.1740870000000000    0.3481740000000000    0.5000000000000000 Mg
   0.1740870000000000    0.8259130000000000    0.5000000000000000 Mg
   0.6518260000000000    0.8259130000000000    0.5000000000000000 Mg
   0.6666666666666666    0.3333333333333333    0.5000000000000000 Mg
