Sr2 Zn4
1.0
      3.9113256061       0.0000000000       1.7037084129
      1.9731350372       4.8969990517       0.8117406604
      0.0000000000       0.0000000000       5.3416091250
Sr Zn
2 4
direct
   0.9465289000000000    0.8034711000000000    0.3034711000000000 Sr
   0.0534711000000000    0.1965289000000000    0.6965289000000000 Sr
   0.3364155000000000    0.2324888300000000    0.0946821700000000 Zn
   0.6635845000000000    0.7675111700000000    0.9053178300000000 Zn
   0.3364155000000000    0.5946821700000000    0.7324888300000000 Zn
   0.6635845000000000    0.4053178300000000    0.2675111700000000 Zn
