Mn1 S1
1.0
      2.3242800000       0.0000000000       0.0000000000
     -0.0000000000       2.3242800000       0.0000000000
      0.0000000000       0.0000000000       2.3242800000
Mn S
1 1
direct
   0.5000000000000000    0.5000000000000000    0.5000000000000000 Mn
   0.0000000000000000    0.0000000000000000    0.0000000000000000 S
