Cu4 S2
1.0
      4.6181100807       0.0000000000       0.0385048290
      1.8674356320       4.2236980098       0.0385048290
      0.0000000000       0.0000000000       4.7837103845
Cu S
4 2
direct
   0.5000000000000000    0.5000000000000000    0.5000000000000000 Cu
   0.5000000000000000    0.0000000000000000    0.5000000000000000 Cu
   0.0000000000000000    0.5000000000000000    0.5000000000000000 Cu
   0.5000000000000000    0.5000000000000000    0.0000000000000000 Cu
   0.3175420000000000    0.3175420000000000    0.2448520000000000 S
   0.6824580000000000    0.6824580000000000    0.7551480000000000 S
