Cu4 S2
1.0
      4.8897636149       0.0000000000       0.0407698189
      1.9772847868       4.4721508339       0.0407698189
      0.0000000000       0.0000000000       5.0651051130
Cu S
4 2
direct
   0.5000000000000000    0.5000000000000000    0.5000000000000000 Cu
   0.5000000000000000    0.0000000000000000    0.5000000000000000 Cu
   0.0000000000000000    0.5000000000000000    0.5000000000000000 Cu
   0.5000000000000000    0.5000000000000000    0.0000000000000000 Cu
   0.3175420000000000    0.3175420000000000    0.2448520000000000 S
   0.6824580000000000    0.6824580000000000    0.7551480000000000 S
