Cu4 S2
1.0
      4.0748030124       0.0000000000       0.0339748491
      1.6477373223       3.7267923616       0.0339748491
      0.0000000000       0.0000000000       4.2209209275
Cu S
4 2
direct
   0.5000000000000000    0.5000000000000000    0.5000000000000000 Cu
   0.5000000000000000    0.0000000000000000    0.5000000000000000 Cu
   0.0000000000000000    0.5000000000000000    0.5000000000000000 Cu
   0.5000000000000000    0.5000000000000000    0.0000000000000000 Cu
   0.3175420000000000    0.3175420000000000    0.2448520000000000 S
   0.6824580000000000    0.6824580000000000    0.7551480000000000 S
