Cu4 S2
1.0
      5.1614171490       0.0000000000       0.0430348089
      2.0871339416       4.7206036580       0.0430348089
      0.0000000000       0.0000000000       5.3464998415
Cu S
4 2
direct
   0.5000000000000000    0.5000000000000000    0.5000000000000000 Cu
   0.5000000000000000    0.0000000000000000    0.5000000000000000 Cu
   0.0000000000000000    0.5000000000000000    0.5000000000000000 Cu
   0.5000000000000000    0.5000000000000000    0.0000000000000000 Cu
   0.3175420000000000    0.3175420000000000    0.2448520000000000 S
   0.6824580000000000    0.6824580000000000    0.7551480000000000 S
