Mg7 Cu1
1.0
      5.8868742720       0.0000000000       0.0000000000
     -2.9434369055       5.0981828015       0.0000000000
      0.0000000000       0.0000000000       4.7601659500
Mg Cu
7 1
direct
   0.1659240000000000    0.3318470000000000    0.0000000000000000 Mg
   0.1659240000000000    0.8340760000000000    0.0000000000000000 Mg
   0.6681530000000000    0.8340760000000000    0.0000000000000000 Mg
   0.9896350000000000    0.4948170000000000    0.5000000000000000 Mg
   0.5051830000000000    0.4948170000000000    0.5000000000000000 Mg
   0.5051830000000000    0.0103650000000000    0.5000000000000000 Mg
   0.0000000000000000    0.0000000000000000    0.5000000000000000 Mg
   0.6666666666666666    0.3333333333333333    0.0000000000000000 Cu
