Mn2 P4
1.0
      4.8001475835       0.0000000000       0.0000000000
      0.0350781795       5.5185220769       0.0000000000
      0.0000000000       0.0000000000       2.6103180020
Mn P
2 4
direct
   0.0000000000000000    0.0000000000000000    0.0000000000000000 Mn
   0.5000000000000000    0.5000000000000000    0.5000000000000000 Mn
   0.1733034100000000    0.3801636300000000    0.0000000000000000 P
   0.3346502900000000    0.8698737900000000    0.5000000000000000 P
   0.6653497100000000    0.1301262100000000    0.5000000000000000 P
   0.8266965900000000    0.6198363700000000    0.0000000000000000 P
