Li1 Ho3
1.0
      4.3749621000       0.0000000000       0.0000000000
     -0.0000000000       4.3749621000       0.0000000000
      0.0000000000       0.0000000000       4.3749621000
Li Ho
1 3
direct
   0.0000000000000000    0.0000000000000000    0.0000000000000000 Li
   0.5000000000000000    0.5000000000000000    0.0000000000000000 Ho
   0.5000000000000000    0.0000000000000000    0.5000000000000000 Ho
   0.0000000000000000    0.5000000000000000    0.5000000000000000 Ho
