K1 Hg3
1.0
      3.4383242793       0.0000000000      -2.6912962348
     -0.8160538182       3.3400793427      -2.6912962348
      0.0000000000       0.0000000000       4.3663656825
K Hg
1 3
direct
   0.0000000000000000    0.0000000000000000    0.0000000000000000 K
   0.7500000000000000    0.2500000000000000    0.5000000000000000 Hg
   0.2500000000000000    0.7500000000000000    0.5000000000000000 Hg
   0.5000000000000000    0.5000000000000000    0.0000000000000000 Hg
