K1 Hg3
1.0
      3.8967675165       0.0000000000      -3.0501357328
     -0.9248609940       3.7854232550      -3.0501357328
      0.0000000000       0.0000000000       4.9485477735
K Hg
1 3
direct
   0.0000000000000000    0.0000000000000000    0.0000000000000000 K
   0.7500000000000000    0.2500000000000000    0.5000000000000000 Hg
   0.2500000000000000    0.7500000000000000    0.5000000000000000 Hg
   0.5000000000000000    0.5000000000000000    0.0000000000000000 Hg
