K1 Hg3
1.0
      4.1259891352       0.0000000000      -3.2295554818
     -0.9792645818       4.0080952112      -3.2295554818
      0.0000000000       0.0000000000       5.2396388190
K Hg
1 3
direct
   0.0000000000000000    0.0000000000000000    0.0000000000000000 K
   0.7500000000000000    0.2500000000000000    0.5000000000000000 Hg
   0.2500000000000000    0.7500000000000000    0.5000000000000000 Hg
   0.5000000000000000    0.5000000000000000    0.0000000000000000 Hg
