K1 Hg3
1.0
      4.3552107538       0.0000000000      -3.4089752308
     -1.0336681697       4.2307671674      -3.4089752308
      0.0000000000       0.0000000000       5.5307298645
K Hg
1 3
direct
   0.0000000000000000    0.0000000000000000    0.0000000000000000 K
   0.7500000000000000    0.2500000000000000    0.5000000000000000 Hg
   0.2500000000000000    0.7500000000000000    0.5000000000000000 Hg
   0.5000000000000000    0.5000000000000000    0.0000000000000000 Hg
