K1 Hg3
1.0
      3.6675458979       0.0000000000      -2.8707159838
     -0.8704574061       3.5627512989      -2.8707159838
      0.0000000000       0.0000000000       4.6574567280
K Hg
1 3
direct
   0.0000000000000000    0.0000000000000000    0.0000000000000000 K
   0.7500000000000000    0.2500000000000000    0.5000000000000000 Hg
   0.2500000000000000    0.7500000000000000    0.5000000000000000 Hg
   0.5000000000000000    0.5000000000000000    0.0000000000000000 Hg
