K3 Zn1
1.0
      4.8862045985       0.0000000000       2.8210515403
      1.6287348662       4.6067578745       2.8210515403
      0.0000000000       0.0000000000       5.6421030805
K Zn
3 1
direct
   0.7500000000000000    0.7500000000000000    0.7500000000000000 K
   0.2500000000000000    0.2500000000000000    0.2500000000000000 K
   0.5000000000000000    0.5000000000000000    0.5000000000000000 K
   0.0000000000000000    0.0000000000000000    0.0000000000000000 Zn
