K3 Zn1
1.0
      4.3113569987       0.0000000000       2.4891631238
      1.4371189996       4.0647863598       2.4891631238
      0.0000000000       0.0000000000       4.9783262475
K Zn
3 1
direct
   0.7500000000000000    0.7500000000000000    0.7500000000000000 K
   0.2500000000000000    0.2500000000000000    0.2500000000000000 K
   0.5000000000000000    0.5000000000000000    0.5000000000000000 K
   0.0000000000000000    0.0000000000000000    0.0000000000000000 Zn
