K3 Zn1
1.0
      4.5987807986       0.0000000000       2.6551073320
      1.5329269329       4.3357721171       2.6551073320
      0.0000000000       0.0000000000       5.3102146640
K Zn
3 1
direct
   0.7500000000000000    0.7500000000000000    0.7500000000000000 K
   0.2500000000000000    0.2500000000000000    0.2500000000000000 K
   0.5000000000000000    0.5000000000000000    0.5000000000000000 K
   0.0000000000000000    0.0000000000000000    0.0000000000000000 Zn
