K3 Zn1
1.0
      5.4610521983       0.0000000000       3.1529399568
      1.8203507328       5.1487293891       3.1529399568
      0.0000000000       0.0000000000       6.3058799135
K Zn
3 1
direct
   0.7500000000000000    0.7500000000000000    0.7500000000000000 K
   0.2500000000000000    0.2500000000000000    0.2500000000000000 K
   0.5000000000000000    0.5000000000000000    0.5000000000000000 K
   0.0000000000000000    0.0000000000000000    0.0000000000000000 Zn
