K3 Zn1
1.0
      5.1736283984       0.0000000000       2.9869957485
      1.7245427995       4.8777436318       2.9869957485
      0.0000000000       0.0000000000       5.9739914970
K Zn
3 1
direct
   0.7500000000000000    0.7500000000000000    0.7500000000000000 K
   0.2500000000000000    0.2500000000000000    0.2500000000000000 K
   0.5000000000000000    0.5000000000000000    0.5000000000000000 K
   0.0000000000000000    0.0000000000000000    0.0000000000000000 Zn
