Li1 H1
1.0
      1.9680367997       0.0000000000       1.1362463998
      0.6560119997       1.8554831990       1.1362463995
      0.0000000000       0.0000000000       2.2724936000
Li H
1 1
direct
   0.0000000000000000    0.0000000000000000    0.0000000000000000 Li
   0.5000000000000000    0.5000000000000000    0.5000000000000000 H
