Li1 H1
1.0
      2.3370436996       0.0000000000       1.3492925997
      0.7790142497       2.2033862988       1.3492925994
      0.0000000000       0.0000000000       2.6985861500
Li H
1 1
direct
   0.0000000000000000    0.0000000000000000    0.0000000000000000 Li
   0.5000000000000000    0.5000000000000000    0.5000000000000000 H
