Li1 H1
1.0
      1.8450344997       0.0000000000       1.0652309998
      0.6150112498       1.7395154990       1.0652309995
      0.0000000000       0.0000000000       2.1304627500
Li H
1 1
direct
   0.0000000000000000    0.0000000000000000    0.0000000000000000 Li
   0.5000000000000000    0.5000000000000000    0.5000000000000000 H
