Li2 B18
1.0
      4.7613268500       0.0000000000       0.0000000000
     -0.0000000000       4.7242037326      -2.7275202528
      0.0000000000       0.0000000000       5.4550405715
Li B
2 18
direct
   0.5841550000000000    0.0000000000000000    0.0000000000000000 Li
   0.0841550000000000    0.0000000000000000    0.0000000000000000 Li
   0.3125060000000000    0.3715250000000000    0.0000000000000000 B
   0.3125060000000000    0.6284750000000000    0.6284750000000000 B
   0.3125060000000000    0.0000000000000000    0.3715250000000000 B
   0.8125060000000000    0.6284750000000000    0.0000000000000000 B
   0.8125060000000000    0.3715250000000000    0.3715250000000000 B
   0.8125060000000000    0.0000000000000000    0.6284750000000000 B
   0.4725550000000000    0.5264529999999999    0.8308219999999999 B
   0.4725550000000000    0.3043700000000000    0.4735470000000000 B
   0.4725550000000000    0.1691780000000000    0.6956300000000000 B
   0.4725550000000000    0.6956300000000000    0.1691780000000000 B
   0.4725550000000000    0.8308219999999999    0.5264529999999999 B
   0.4725550000000000    0.4735470000000000    0.3043700000000000 B
   0.9725549999999999    0.4735470000000000    0.1691780000000000 B
   0.9725549999999999    0.6956300000000000    0.5264529999999999 B
   0.9725549999999999    0.8308219999999999    0.3043700000000000 B
   0.9725549999999999    0.3043700000000000    0.8308219999999999 B
   0.9725549999999999    0.1691780000000000    0.4735470000000000 B
   0.9725549999999999    0.5264529999999999    0.6956300000000000 B
