Mn2 F6
1.0
      3.9831000777       0.0000000000       2.1787301026
      1.2497181635       3.7819691618       2.1787301026
      0.0000000000       0.0000000000       4.6477939990
Mn F
2 6
direct
   0.0000000000000000    0.5000000000000000    0.0000000000000000 Mn
   0.5000000000000000    0.0000000000000000    0.5000000000000000 Mn
   0.6743330000000000    0.3256670000000000    0.2500000000000000 F
   0.3256670000000000    0.6743330000000000    0.7500000000000000 F
   0.8393620000000001    0.7376070000000000    0.2346180000000000 F
   0.2623930000000000    0.1606380000000000    0.2653820000000000 F
   0.1606380000000000    0.2623930000000000    0.7653820000000000 F
   0.7376070000000000    0.8393620000000001    0.7346180000000000 F
