K1 Si1
1.0
      3.7364739477       0.0000000000       2.1572542395
      1.2454913159       3.5227814215       2.1572542395
      0.0000000000       0.0000000000       4.3145084790
K Si
1 1
direct
   0.0000000000000000    0.0000000000000000    0.0000000000000000 K
   0.5000000000000000    0.5000000000000000    0.5000000000000000 Si
