K1 Si1
1.0
      3.5288920617       0.0000000000       2.0374067818
      1.1762973539       3.3270713425       2.0374067818
      0.0000000000       0.0000000000       4.0748135635
K Si
1 1
direct
   0.0000000000000000    0.0000000000000000    0.0000000000000000 K
   0.5000000000000000    0.5000000000000000    0.5000000000000000 Si
