K1 Si1
1.0
      3.9440558336       0.0000000000       2.2771016973
      1.3146852779       3.7184915005       2.2771016973
      0.0000000000       0.0000000000       4.5542033945
K Si
1 1
direct
   0.0000000000000000    0.0000000000000000    0.0000000000000000 K
   0.5000000000000000    0.5000000000000000    0.5000000000000000 Si
