K1 Si1
1.0
      3.3213101757       0.0000000000       1.9175593240
      1.1071033919       3.1313612635       1.9175593240
      0.0000000000       0.0000000000       3.8351186480
K Si
1 1
direct
   0.0000000000000000    0.0000000000000000    0.0000000000000000 K
   0.5000000000000000    0.5000000000000000    0.5000000000000000 Si
