K1 Si1
1.0
      3.1137282897       0.0000000000       1.7977118663
      1.0379094299       2.9356511846       1.7977118663
      0.0000000000       0.0000000000       3.5954237325
K Si
1 1
direct
   0.0000000000000000    0.0000000000000000    0.0000000000000000 K
   0.5000000000000000    0.5000000000000000    0.5000000000000000 Si
