Cu1 O2
1.0
      2.3857502187       0.0000000000       3.3809641207
      1.0727779366       2.1309508686       3.3809641207
      0.0000000000       0.0000000000       4.1379608795
Cu O
1 2
direct
   0.0000000000000000    0.0000000000000000    0.0000000000000000 Cu
   0.2651320000000000    0.2651320000000000    0.2651320000000000 O
   0.7348680000000000    0.7348680000000000    0.7348680000000000 O
