Cu1 O2
1.0
      2.6664267150       0.0000000000       3.7787246055
      1.1989871056       2.3816509708       3.7787246055
      0.0000000000       0.0000000000       4.6247798065
Cu O
1 2
direct
   0.0000000000000000    0.0000000000000000    0.0000000000000000 Cu
   0.2651320000000000    0.2651320000000000    0.2651320000000000 O
   0.7348680000000000    0.7348680000000000    0.7348680000000000 O
