Cu1 O2
1.0
      2.2454119705       0.0000000000       3.1820838783
      1.0096733521       2.0056008175       3.1820838783
      0.0000000000       0.0000000000       3.8945514160
Cu O
1 2
direct
   0.0000000000000000    0.0000000000000000    0.0000000000000000 Cu
   0.2651320000000000    0.2651320000000000    0.2651320000000000 O
   0.7348680000000000    0.7348680000000000    0.7348680000000000 O
