Cu1 O2
1.0
      2.5260884668       0.0000000000       3.5798443631
      1.1358825211       2.2563009197       3.5798443631
      0.0000000000       0.0000000000       4.3813703430
Cu O
1 2
direct
   0.0000000000000000    0.0000000000000000    0.0000000000000000 Cu
   0.2651320000000000    0.2651320000000000    0.2651320000000000 O
   0.7348680000000000    0.7348680000000000    0.7348680000000000 O
