Cu1 O2
1.0
      2.1050737223       0.0000000000       2.9832036359
      0.9465687676       1.8802507664       2.9832036359
      0.0000000000       0.0000000000       3.6511419525
Cu O
1 2
direct
   0.0000000000000000    0.0000000000000000    0.0000000000000000 Cu
   0.2651320000000000    0.2651320000000000    0.2651320000000000 O
   0.7348680000000000    0.7348680000000000    0.7348680000000000 O
