Li2 Pt1
1.0
      3.7549176480       0.0000000000       0.0000000000
     -1.8774583754       3.2518530738       0.0000000000
      0.0000000000       0.0000000000       2.3782925880
Li Pt
2 1
direct
   0.3333333333333333    0.6666666666666666    0.5000000000000000 Li
   0.6666666666666666    0.3333333333333333    0.5000000000000000 Li
   0.0000000000000000    0.0000000000000000    0.0000000000000000 Pt
