Li2 Mg4
1.0
      7.4476089090       0.0000000000       0.0000000000
     -6.9209541108       2.7508676190       0.0000000000
      0.0000000000       0.0000000000       4.6256868540
Li Mg
2 4
direct
   0.2790177000000000    0.7209823000000000    0.2500000000000000 Li
   0.7209823000000000    0.2790177000000000    0.7500000000000000 Li
   0.6144817900000000    0.3855182100000000    0.2500000000000000 Mg
   0.9428616200000000    0.0571383800000000    0.2500000000000000 Mg
   0.0571383800000000    0.9428616200000000    0.7500000000000000 Mg
   0.3855182100000000    0.6144817900000000    0.7500000000000000 Mg
