K3 Sr1
1.0
      4.3880479594       0.0000000000      -4.2962101479
     -0.7756071713       4.3189580237      -4.2962101479
      0.0000000000       0.0000000000       6.1410411600
K Sr
3 1
direct
   0.7500000000000000    0.2500000000000000    0.5000000000000000 K
   0.2500000000000000    0.7500000000000000    0.5000000000000000 K
   0.5000000000000000    0.5000000000000000    0.0000000000000000 K
   0.0000000000000000    0.0000000000000000    0.0000000000000000 Sr
