K3 Sr1
1.0
      4.6805844901       0.0000000000      -4.5826241577
     -0.8273143160       4.6068885586      -4.5826241577
      0.0000000000       0.0000000000       6.5504439040
K Sr
3 1
direct
   0.7500000000000000    0.2500000000000000    0.5000000000000000 K
   0.2500000000000000    0.7500000000000000    0.5000000000000000 K
   0.5000000000000000    0.5000000000000000    0.0000000000000000 K
   0.0000000000000000    0.0000000000000000    0.0000000000000000 Sr
