K3 Sr1
1.0
      5.5581940819       0.0000000000      -5.4418661873
     -0.9824357503       5.4706801633      -5.4418661873
      0.0000000000       0.0000000000       7.7786521360
K Sr
3 1
direct
   0.7500000000000000    0.2500000000000000    0.5000000000000000 K
   0.2500000000000000    0.7500000000000000    0.5000000000000000 K
   0.5000000000000000    0.5000000000000000    0.0000000000000000 K
   0.0000000000000000    0.0000000000000000    0.0000000000000000 Sr
