K3 Sr1
1.0
      4.9731210207       0.0000000000      -4.8690381676
     -0.8790214608       4.8948190935      -4.8690381676
      0.0000000000       0.0000000000       6.9598466480
K Sr
3 1
direct
   0.7500000000000000    0.2500000000000000    0.5000000000000000 K
   0.2500000000000000    0.7500000000000000    0.5000000000000000 K
   0.5000000000000000    0.5000000000000000    0.0000000000000000 K
   0.0000000000000000    0.0000000000000000    0.0000000000000000 Sr
