K3 Sr1
1.0
      5.2656575513       0.0000000000      -5.1554521774
     -0.9307286055       5.1827496284      -5.1554521774
      0.0000000000       0.0000000000       7.3692493920
K Sr
3 1
direct
   0.7500000000000000    0.2500000000000000    0.5000000000000000 K
   0.2500000000000000    0.7500000000000000    0.5000000000000000 K
   0.5000000000000000    0.5000000000000000    0.0000000000000000 K
   0.0000000000000000    0.0000000000000000    0.0000000000000000 Sr
