Mn6 Ir2
1.0
      4.0692051000       0.0000000000      -0.0000170905
     -1.9907034947       3.4522147356       0.0000058807
      0.0000000000       0.0000000000       3.2744589075
Mn Ir
6 2
direct
   0.1690645000000000    0.3336635400000000    0.2499997500000000 Mn
   0.6565861700000000    0.8250267700000000    0.2499997000000000 Mn
   0.1574566400000000    0.8266547300000000    0.2499993600000000 Mn
   0.8310664400000000    0.6641287600000000    0.7499996500000000 Mn
   0.3472609800000000    0.1716361000000000    0.7500002099999999 Mn
   0.8453044400000000    0.1790684300000000    0.7499996900000000 Mn
   0.6538238400000000    0.3211149300000000    0.2499987200000000 Ir
   0.3394369900000000    0.6787067500000000    0.7500029200000000 Ir
