Li1 S1
1.0
      2.2443065877       0.0000000000      -2.6058169096
     -0.3093644268       2.2228822981      -2.6058169096
      0.0000000000       0.0000000000       3.4390687440
Li S
1 1
direct
   0.5000000000000000    0.5000000000000000    0.0000000000000000 Li
   0.7500000000000000    0.2500000000000000    0.5000000000000000 S
