K1 Cd3
1.0
      3.5922468247       0.0000000000       2.0739846713
      1.1974156082       3.3868027859       2.0739846713
      0.0000000000       0.0000000000       4.1479693425
K Cd
1 3
direct
   0.0000000000000000    0.0000000000000000    0.0000000000000000 K
   0.2500000000000000    0.2500000000000000    0.2500000000000000 Cd
   0.7500000000000000    0.7500000000000000    0.7500000000000000 Cd
   0.5000000000000000    0.5000000000000000    0.5000000000000000 Cd
