K1 Cd3
1.0
      4.0712130680       0.0000000000       2.3505159608
      1.3570710227       3.8383764907       2.3505159608
      0.0000000000       0.0000000000       4.7010319215
K Cd
1 3
direct
   0.0000000000000000    0.0000000000000000    0.0000000000000000 K
   0.2500000000000000    0.2500000000000000    0.2500000000000000 Cd
   0.7500000000000000    0.7500000000000000    0.7500000000000000 Cd
   0.5000000000000000    0.5000000000000000    0.5000000000000000 Cd
