K1 Cd3
1.0
      4.5501793113       0.0000000000       2.6270472503
      1.5167264371       4.2899501955       2.6270472503
      0.0000000000       0.0000000000       5.2540945005
K Cd
1 3
direct
   0.0000000000000000    0.0000000000000000    0.0000000000000000 K
   0.2500000000000000    0.2500000000000000    0.2500000000000000 Cd
   0.7500000000000000    0.7500000000000000    0.7500000000000000 Cd
   0.5000000000000000    0.5000000000000000    0.5000000000000000 Cd
