K1 Cd3
1.0
      3.8317299464       0.0000000000       2.2122503160
      1.2772433155       3.6125896383       2.2122503160
      0.0000000000       0.0000000000       4.4245006320
K Cd
1 3
direct
   0.0000000000000000    0.0000000000000000    0.0000000000000000 K
   0.2500000000000000    0.2500000000000000    0.2500000000000000 Cd
   0.7500000000000000    0.7500000000000000    0.7500000000000000 Cd
   0.5000000000000000    0.5000000000000000    0.5000000000000000 Cd
