K1 Cd3
1.0
      4.3106961897       0.0000000000       2.4887816055
      1.4368987299       4.0641633431       2.4887816055
      0.0000000000       0.0000000000       4.9775632110
K Cd
1 3
direct
   0.0000000000000000    0.0000000000000000    0.0000000000000000 K
   0.2500000000000000    0.2500000000000000    0.2500000000000000 Cd
   0.7500000000000000    0.7500000000000000    0.7500000000000000 Cd
   0.5000000000000000    0.5000000000000000    0.5000000000000000 Cd
