K2 Co2
1.0
      2.6581719127       0.0000000000      -0.7961404927
     -0.5697973574       3.8019998658      -1.9024523250
      0.0000000000       0.0000000000       4.8356525475
K Co
2 2
direct
   0.0978060000000000    0.3478060000000000    0.6956120000000000 K
   0.9021940000000001    0.6521940000000001    0.3043880000000000 K
   0.6952650000000000    0.9452650000000000    0.8905290000000000 Co
   0.3047350000000000    0.0547350000000000    0.1094710000000000 Co
