K2 Co2
1.0
      2.8353833736       0.0000000000      -0.8492165255
     -0.6077838479       4.0554665235      -2.0292824800
      0.0000000000       0.0000000000       5.1580293840
K Co
2 2
direct
   0.0978060000000000    0.3478060000000000    0.6956120000000000 K
   0.9021940000000001    0.6521940000000001    0.3043880000000000 K
   0.6952650000000000    0.9452650000000000    0.8905290000000000 Co
   0.3047350000000000    0.0547350000000000    0.1094710000000000 Co
