K2 Co2
1.0
      3.1898062953       0.0000000000      -0.9553685912
     -0.6837568288       4.5623998389      -2.2829427900
      0.0000000000       0.0000000000       5.8027830570
K Co
2 2
direct
   0.0978060000000000    0.3478060000000000    0.6956120000000000 K
   0.9021940000000001    0.6521940000000001    0.3043880000000000 K
   0.6952650000000000    0.9452650000000000    0.8905290000000000 Co
   0.3047350000000000    0.0547350000000000    0.1094710000000000 Co
