K3 Zn1
1.0
      4.3802390126       0.0000000000      -3.7566103010
     -0.9259157634       4.2812584373      -3.7566103010
      0.0000000000       0.0000000000       5.7704951920
K Zn
3 1
direct
   0.7500000000000000    0.2500000000000000    0.5000000000000000 K
   0.2500000000000000    0.7500000000000000    0.5000000000000000 K
   0.5000000000000000    0.5000000000000000    0.0000000000000000 K
   0.0000000000000000    0.0000000000000000    0.0000000000000000 Zn
