K3 Zn1
1.0
      5.2015338275       0.0000000000      -4.4609747324
     -1.0995249690       5.0839943943      -4.4609747324
      0.0000000000       0.0000000000       6.8524630405
K Zn
3 1
direct
   0.7500000000000000    0.2500000000000000    0.5000000000000000 K
   0.2500000000000000    0.7500000000000000    0.5000000000000000 K
   0.5000000000000000    0.5000000000000000    0.0000000000000000 K
   0.0000000000000000    0.0000000000000000    0.0000000000000000 Zn
