K3 Zn1
1.0
      4.6540039509       0.0000000000      -3.9913984448
     -0.9837854986       4.5488370896      -3.9913984448
      0.0000000000       0.0000000000       6.1311511415
K Zn
3 1
direct
   0.7500000000000000    0.2500000000000000    0.5000000000000000 K
   0.2500000000000000    0.7500000000000000    0.5000000000000000 K
   0.5000000000000000    0.5000000000000000    0.0000000000000000 K
   0.0000000000000000    0.0000000000000000    0.0000000000000000 Zn
