K3 Zn1
1.0
      4.9277688892       0.0000000000      -4.2261865886
     -1.0416552338       4.8164157419      -4.2261865886
      0.0000000000       0.0000000000       6.4918070910
K Zn
3 1
direct
   0.7500000000000000    0.2500000000000000    0.5000000000000000 K
   0.2500000000000000    0.7500000000000000    0.5000000000000000 K
   0.5000000000000000    0.5000000000000000    0.0000000000000000 K
   0.0000000000000000    0.0000000000000000    0.0000000000000000 Zn
