K3 Zn1
1.0
      4.1064740743       0.0000000000      -3.5218221572
     -0.8680460281       4.0136797850      -3.5218221572
      0.0000000000       0.0000000000       5.4098392425
K Zn
3 1
direct
   0.7500000000000000    0.2500000000000000    0.5000000000000000 K
   0.2500000000000000    0.7500000000000000    0.5000000000000000 K
   0.5000000000000000    0.5000000000000000    0.0000000000000000 K
   0.0000000000000000    0.0000000000000000    0.0000000000000000 Zn
