Ho2 Zn4
1.0
      3.8631427558       0.0000000000       1.6713046478
      1.7971600918       4.8528620040       1.1463336707
      0.0000000000       0.0000000000       5.3003916390
Ho Zn
2 4
direct
   0.5286385300000001    0.7213614699999999    0.2213614700000000 Ho
   0.4713614700000000    0.2786385300000000    0.7786385300000001 Ho
   0.8339524400000000    0.7092486300000000    0.6228454900000000 Zn
   0.1660475600000000    0.2907513700000000    0.3771545100000000 Zn
   0.8339524400000000    0.1228454900000000    0.2092486300000000 Zn
   0.1660475600000000    0.8771545100000000    0.7907513700000000 Zn
