Li3 Mg3
1.0
      6.9035390865       0.0000000000       0.0000000000
     -6.3859565231       2.6226725307       0.0000000000
      0.0000000000       0.0000000000       4.2936438620
Li Mg
3 3
direct
   0.9999073600000000    0.0000926400000000    0.0000000000000000 Li
   0.6651723000000000    0.3348277000000000    0.0000000000000000 Li
   0.4455592900000000    0.5544407099999999    0.5000000000000000 Li
   0.3336695600000000    0.6663304400000000    0.0000000000000000 Mg
   0.1099872900000000    0.8900127100000000    0.5000000000000000 Mg
   0.7790362100000000    0.2209637900000000    0.5000000000000000 Mg
