Li2 Mg2
1.0
      4.3762974496       0.0000000000       2.0694326568
      3.4358167017       2.7105613736       2.0694326568
      0.0000000000       0.0000000000       4.1645369540
Li Mg
2 2
direct
   0.6332994800000000    0.6332994800000000    0.6164588100000000 Li
   0.3667005200000000    0.3667005200000000    0.3835411900000000 Li
   0.8846043800000000    0.8846043800000000    0.8645454700000000 Mg
   0.1153956200000000    0.1153956200000000    0.1354545300000000 Mg
