Li2 Mg2
1.0
      4.6337267113       0.0000000000       2.1911639895
      3.6379235665       2.8700061603       2.1911639895
      0.0000000000       0.0000000000       4.4095097160
Li Mg
2 2
direct
   0.6332994800000000    0.6332994800000000    0.6164588100000000 Li
   0.3667005200000000    0.3667005200000000    0.3835411900000000 Li
   0.8846043800000000    0.8846043800000000    0.8645454700000000 Mg
   0.1153956200000000    0.1153956200000000    0.1354545300000000 Mg
