Li1 Al3
1.0
      3.1044290350       0.0000000000      -2.7615416359
     -0.6254228790       3.0407771795      -2.7615416359
      0.0000000000       0.0000000000       4.1549478745
Li Al
1 3
direct
   0.0000000000000000    0.0000000000000000    0.0000000000000000 Li
   0.7499980000000001    0.2499990000000000    0.4999990000000000 Al
   0.2499990000000000    0.7499980000000001    0.4999990000000000 Al
   0.5000010000000000    0.5000010000000000    0.0000000000000000 Al
