Li1 Al3
1.0
      3.2870425076       0.0000000000      -2.9239852615
     -0.6622124602       3.2196464254      -2.9239852615
      0.0000000000       0.0000000000       4.3993565730
Li Al
1 3
direct
   0.0000000000000000    0.0000000000000000    0.0000000000000000 Li
   0.7499980000000001    0.2499990000000000    0.4999990000000000 Al
   0.2499990000000000    0.7499980000000001    0.4999990000000000 Al
   0.5000010000000000    0.5000010000000000    0.0000000000000000 Al
