Li6 Be2
1.0
      4.4050215680       0.0000000000       0.0000000000
     -2.2025115490       3.8148601404       0.0000000000
      0.0000000000       0.0000000000       3.6225176000
Li Be
6 2
direct
   0.1739010000000000    0.3478020000000000    0.2500000000000000 Li
   0.6521980000000001    0.8260990000000000    0.2500000000000000 Li
   0.1739010000000000    0.8260990000000000    0.2500000000000000 Li
   0.8260990000000000    0.6521980000000001    0.7500000000000000 Li
   0.3478020000000000    0.1739010000000000    0.7500000000000000 Li
   0.8260990000000000    0.1739010000000000    0.7500000000000000 Li
   0.3333333333333333    0.6666666666666666    0.7500000000000000 Be
   0.6666666666666666    0.3333333333333333    0.2500000000000000 Be
