Mn3 N2
1.0
      2.2312646368       0.0000000000      -4.5693349005
     -0.1191810771       2.2280793860      -4.5693349005
      0.0000000000       0.0000000000       5.0850136000
Mn N
3 2
direct
   0.6688510000000000    0.6688510000000000    0.0000000000000000 Mn
   0.3311490000000000    0.3311490000000000    0.0000000000000000 Mn
   0.0000000000000000    0.0000000000000000    0.0000000000000000 Mn
   0.8400650000000000    0.8400650000000000    0.0000000000000000 N
   0.1599350000000000    0.1599350000000000    0.0000000000000000 N
