Mn3 N2
1.0
      2.3707186766       0.0000000000      -4.8549183317
     -0.1266298944       2.3673343477      -4.8549183317
      0.0000000000       0.0000000000       5.4028269500
Mn N
3 2
direct
   0.6688510000000000    0.6688510000000000    0.0000000000000000 Mn
   0.3311490000000000    0.3311490000000000    0.0000000000000000 Mn
   0.0000000000000000    0.0000000000000000    0.0000000000000000 Mn
   0.8400650000000000    0.8400650000000000    0.0000000000000000 N
   0.1599350000000000    0.1599350000000000    0.0000000000000000 N
