Mn3 N2
1.0
      2.5101727164       0.0000000000      -5.1405017630
     -0.1340787117       2.5065893093      -5.1405017630
      0.0000000000       0.0000000000       5.7206403000
Mn N
3 2
direct
   0.6688510000000000    0.6688510000000000    0.0000000000000000 Mn
   0.3311490000000000    0.3311490000000000    0.0000000000000000 Mn
   0.0000000000000000    0.0000000000000000    0.0000000000000000 Mn
   0.8400650000000000    0.8400650000000000    0.0000000000000000 N
   0.1599350000000000    0.1599350000000000    0.0000000000000000 N
