Mn3 N2
1.0
      2.0918105970       0.0000000000      -4.2837514692
     -0.1117322598       2.0888244244      -4.2837514692
      0.0000000000       0.0000000000       4.7672002500
Mn N
3 2
direct
   0.6688510000000000    0.6688510000000000    0.0000000000000000 Mn
   0.3311490000000000    0.3311490000000000    0.0000000000000000 Mn
   0.0000000000000000    0.0000000000000000    0.0000000000000000 Mn
   0.8400650000000000    0.8400650000000000    0.0000000000000000 N
   0.1599350000000000    0.1599350000000000    0.0000000000000000 N
