Mn3 N2
1.0
      2.6496267562       0.0000000000      -5.4260851943
     -0.1415275290       2.6458442709      -5.4260851943
      0.0000000000       0.0000000000       6.0384536500
Mn N
3 2
direct
   0.6688510000000000    0.6688510000000000    0.0000000000000000 Mn
   0.3311490000000000    0.3311490000000000    0.0000000000000000 Mn
   0.0000000000000000    0.0000000000000000    0.0000000000000000 Mn
   0.8400650000000000    0.8400650000000000    0.0000000000000000 N
   0.1599350000000000    0.1599350000000000    0.0000000000000000 N
