Li1 Tl1
1.0
      3.2677924440       0.0000000000       0.0000000000
     -0.0000000000       3.2677924440       0.0000000000
      0.0000000000       0.0000000000       3.2677924440
Li Tl
1 1
direct
   0.0000000000000000    0.0000000000000000    0.0000000000000000 Li
   0.5000000000000000    0.5000000000000000    0.5000000000000000 Tl
