Cu2 S1
1.0
      2.7203817506       0.0000000000       1.5706131360
      0.9067939169       2.5648005110       1.5706131360
      0.0000000000       0.0000000000       3.1412262720
Cu S
2 1
direct
   0.2500000000000000    0.2500000000000000    0.2500000000000000 Cu
   0.7500000000000000    0.7500000000000000    0.7500000000000000 Cu
   0.0000000000000000    0.0000000000000000    0.0000000000000000 S
