Cu2 S1
1.0
      2.5503578912       0.0000000000       1.4724498150
      0.8501192971       2.4045004791       1.4724498150
      0.0000000000       0.0000000000       2.9448996300
Cu S
2 1
direct
   0.2500000000000000    0.2500000000000000    0.2500000000000000 Cu
   0.7500000000000000    0.7500000000000000    0.7500000000000000 Cu
   0.0000000000000000    0.0000000000000000    0.0000000000000000 S
