Cu2 S1
1.0
      2.8904056100       0.0000000000       1.6687764570
      0.9634685367       2.7251005429       1.6687764570
      0.0000000000       0.0000000000       3.3375529140
Cu S
2 1
direct
   0.2500000000000000    0.2500000000000000    0.2500000000000000 Cu
   0.7500000000000000    0.7500000000000000    0.7500000000000000 Cu
   0.0000000000000000    0.0000000000000000    0.0000000000000000 S
