Cu2 S1
1.0
      3.2304533288       0.0000000000       1.8651030990
      1.0768177763       3.0457006068       1.8651030990
      0.0000000000       0.0000000000       3.7302061980
Cu S
2 1
direct
   0.2500000000000000    0.2500000000000000    0.2500000000000000 Cu
   0.7500000000000000    0.7500000000000000    0.7500000000000000 Cu
   0.0000000000000000    0.0000000000000000    0.0000000000000000 S
