Cu2 S1
1.0
      3.0604294694       0.0000000000       1.7669397780
      1.0201431565       2.8854005749       1.7669397780
      0.0000000000       0.0000000000       3.5338795560
Cu S
2 1
direct
   0.2500000000000000    0.2500000000000000    0.2500000000000000 Cu
   0.7500000000000000    0.7500000000000000    0.7500000000000000 Cu
   0.0000000000000000    0.0000000000000000    0.0000000000000000 S
