Cu3 As1
1.0
      3.2941169991       0.0000000000       1.9018592994
      1.0980386993       3.1057235966       1.9018592976
      0.0000000000       0.0000000000       3.8037186000
Cu As
3 1
direct
   0.5000000000000000    0.5000000000000000    0.5000000000000000 Cu
   0.2500000000000000    0.2500000000000000    0.2500000000000000 Cu
   0.7500000000000000    0.7500000000000000    0.7500000000000000 Cu
   0.0000000000000000    0.0000000000000000    0.0000000000000000 As
