Cu3 As1
1.0
      3.4771234991       0.0000000000       2.0075181494
      1.1590408492       3.2782637964       2.0075181475
      0.0000000000       0.0000000000       4.0150363000
Cu As
3 1
direct
   0.5000000000000000    0.5000000000000000    0.5000000000000000 Cu
   0.2500000000000000    0.2500000000000000    0.2500000000000000 Cu
   0.7500000000000000    0.7500000000000000    0.7500000000000000 Cu
   0.0000000000000000    0.0000000000000000    0.0000000000000000 As
