Cu3 As1
1.0
      2.9281039992       0.0000000000       1.6905415995
      0.9760343994       2.7606431969       1.6905415979
      0.0000000000       0.0000000000       3.3810832000
Cu As
3 1
direct
   0.5000000000000000    0.5000000000000000    0.5000000000000000 Cu
   0.2500000000000000    0.2500000000000000    0.2500000000000000 Cu
   0.7500000000000000    0.7500000000000000    0.7500000000000000 Cu
   0.0000000000000000    0.0000000000000000    0.0000000000000000 As
