Cu3 As1
1.0
      2.7450974993       0.0000000000       1.5848827495
      0.9150322494       2.5881029971       1.5848827480
      0.0000000000       0.0000000000       3.1697655000
Cu As
3 1
direct
   0.5000000000000000    0.5000000000000000    0.5000000000000000 Cu
   0.2500000000000000    0.2500000000000000    0.2500000000000000 Cu
   0.7500000000000000    0.7500000000000000    0.7500000000000000 Cu
   0.0000000000000000    0.0000000000000000    0.0000000000000000 As
