Cu3 As1
1.0
      3.1111104992       0.0000000000       1.7962004494
      1.0370365493       2.9331833967       1.7962004477
      0.0000000000       0.0000000000       3.5924009000
Cu As
3 1
direct
   0.5000000000000000    0.5000000000000000    0.5000000000000000 Cu
   0.2500000000000000    0.2500000000000000    0.2500000000000000 Cu
   0.7500000000000000    0.7500000000000000    0.7500000000000000 Cu
   0.0000000000000000    0.0000000000000000    0.0000000000000000 As
