Li1 Ag3
1.0
      2.9538291912       0.0000000000      -2.6470581558
     -0.5892559372       2.8944575193      -2.6470581558
      0.0000000000       0.0000000000       3.9663615280
Li Ag
1 3
direct
   0.0000000000000000    0.0000000000000000    0.0000000000000000 Li
   0.7499990000000000    0.2500000000000000    0.4999990000000000 Ag
   0.2500000000000000    0.7499990000000000    0.4999990000000000 Ag
   0.5000000000000000    0.5000000000000000    0.0000000000000000 Ag
