Li1 Ag3
1.0
      3.5076721645       0.0000000000      -3.1433815600
     -0.6997414254       3.4371683042      -3.1433815600
      0.0000000000       0.0000000000       4.7100543145
Li Ag
1 3
direct
   0.0000000000000000    0.0000000000000000    0.0000000000000000 Li
   0.7499990000000000    0.2500000000000000    0.4999990000000000 Ag
   0.2500000000000000    0.7499990000000000    0.4999990000000000 Ag
   0.5000000000000000    0.5000000000000000    0.0000000000000000 Ag
