Li1 Ag3
1.0
      2.7692148667       0.0000000000      -2.4816170211
     -0.5524274411       2.7135539243      -2.4816170211
      0.0000000000       0.0000000000       3.7184639325
Li Ag
1 3
direct
   0.0000000000000000    0.0000000000000000    0.0000000000000000 Li
   0.7499990000000000    0.2500000000000000    0.4999990000000000 Ag
   0.2500000000000000    0.7499990000000000    0.4999990000000000 Ag
   0.5000000000000000    0.5000000000000000    0.0000000000000000 Ag
