K3 In1
1.0
      4.7671737027       0.0000000000      -4.3400151935
     -0.9310942919       4.6753618610      -4.3400151935
      0.0000000000       0.0000000000       6.4468346490
K In
3 1
direct
   0.7500000000000000    0.2500000000000000    0.5000000000000000 K
   0.2500000000000000    0.7500000000000000    0.5000000000000000 K
   0.5000000000000000    0.5000000000000000    0.0000000000000000 K
   0.0000000000000000    0.0000000000000000    0.0000000000000000 In
