K3 In1
1.0
      4.5023307192       0.0000000000      -4.0989032383
     -0.8793668312       4.4156195354      -4.0989032383
      0.0000000000       0.0000000000       6.0886771685
K In
3 1
direct
   0.7500000000000000    0.2500000000000000    0.5000000000000000 K
   0.2500000000000000    0.7500000000000000    0.5000000000000000 K
   0.5000000000000000    0.5000000000000000    0.0000000000000000 K
   0.0000000000000000    0.0000000000000000    0.0000000000000000 In
