K3 In1
1.0
      4.2374877357       0.0000000000      -3.8577912831
     -0.8276393706       4.1558772098      -3.8577912831
      0.0000000000       0.0000000000       5.7305196880
K In
3 1
direct
   0.7500000000000000    0.2500000000000000    0.5000000000000000 K
   0.2500000000000000    0.7500000000000000    0.5000000000000000 K
   0.5000000000000000    0.5000000000000000    0.0000000000000000 K
   0.0000000000000000    0.0000000000000000    0.0000000000000000 In
