K3 In1
1.0
      3.9726447522       0.0000000000      -3.6166793279
     -0.7759119099       3.8961348842      -3.6166793279
      0.0000000000       0.0000000000       5.3723622075
K In
3 1
direct
   0.7500000000000000    0.2500000000000000    0.5000000000000000 K
   0.2500000000000000    0.7500000000000000    0.5000000000000000 K
   0.5000000000000000    0.5000000000000000    0.0000000000000000 K
   0.0000000000000000    0.0000000000000000    0.0000000000000000 In
