K3 In1
1.0
      5.0320166862       0.0000000000      -4.5811271487
     -0.9828217526       4.9351041866      -4.5811271487
      0.0000000000       0.0000000000       6.8049921295
K In
3 1
direct
   0.7500000000000000    0.2500000000000000    0.5000000000000000 K
   0.2500000000000000    0.7500000000000000    0.5000000000000000 K
   0.5000000000000000    0.5000000000000000    0.0000000000000000 K
   0.0000000000000000    0.0000000000000000    0.0000000000000000 In
