Li6 Tb2
1.0
      5.9215023360       0.0000000000       0.0000000000
     -2.9607503025       5.1281719512       0.0000000000
      0.0000000000       0.0000000000       4.5393642000
Li Tb
6 2
direct
   0.1496690000000000    0.2993380000000000    0.2500000000000000 Li
   0.7006620000000000    0.8503309999999999    0.2500000000000000 Li
   0.1496690000000000    0.8503309999999999    0.2500000000000000 Li
   0.8503309999999999    0.7006620000000000    0.7500000000000000 Li
   0.2993380000000000    0.1496690000000000    0.7500000000000000 Li
   0.8503309999999999    0.1496690000000000    0.7500000000000000 Li
   0.3333333333333333    0.6666666666666666    0.7500000000000000 Tb
   0.6666666666666666    0.3333333333333333    0.2500000000000000 Tb
