Li1 Au3
1.0
      3.8269106975       0.0000000000       0.0000000000
     -0.0000000000       3.8269106975       0.0000000000
      0.0000000000       0.0000000000       3.8269106975
Li Au
1 3
direct
   0.0000000000000000    0.0000000000000000    0.0000000000000000 Li
   0.5000000000000000    0.5000000000000000    0.0000000000000000 Au
   0.5000000000000000    0.0000000000000000    0.5000000000000000 Au
   0.0000000000000000    0.5000000000000000    0.5000000000000000 Au
