Li3 Pd1
1.0
      3.4146906731       0.0000000000      -2.8939480449
     -0.7330254324       3.3350841231      -2.8939480449
      0.0000000000       0.0000000000       4.4760526895
Li Pd
3 1
direct
   0.7500000000000000    0.2500000000000000    0.5000000000000000 Li
   0.2500000000000000    0.7500000000000000    0.5000000000000000 Li
   0.5000000000000000    0.5000000000000000    0.0000000000000000 Li
   0.0000000000000000    0.0000000000000000    0.0000000000000000 Pd
