Li3 Pd1
1.0
      3.2349701113       0.0000000000      -2.7416349899
     -0.6944451465       3.1595533798      -2.7416349899
      0.0000000000       0.0000000000       4.2404709690
Li Pd
3 1
direct
   0.7500000000000000    0.2500000000000000    0.5000000000000000 Li
   0.2500000000000000    0.7500000000000000    0.5000000000000000 Li
   0.5000000000000000    0.5000000000000000    0.0000000000000000 Li
   0.0000000000000000    0.0000000000000000    0.0000000000000000 Pd
