Li3 Pd1
1.0
      2.8755289878       0.0000000000      -2.4370088799
     -0.6172845746       2.8084918931      -2.4370088799
      0.0000000000       0.0000000000       3.7693075280
Li Pd
3 1
direct
   0.7500000000000000    0.2500000000000000    0.5000000000000000 Li
   0.2500000000000000    0.7500000000000000    0.5000000000000000 Li
   0.5000000000000000    0.5000000000000000    0.0000000000000000 Li
   0.0000000000000000    0.0000000000000000    0.0000000000000000 Pd
