Li3 Pd1
1.0
      2.6958084261       0.0000000000      -2.2846958249
     -0.5787042887       2.6329611498      -2.2846958249
      0.0000000000       0.0000000000       3.5337258075
Li Pd
3 1
direct
   0.7500000000000000    0.2500000000000000    0.5000000000000000 Li
   0.2500000000000000    0.7500000000000000    0.5000000000000000 Li
   0.5000000000000000    0.5000000000000000    0.0000000000000000 Li
   0.0000000000000000    0.0000000000000000    0.0000000000000000 Pd
