K3 Ba1
1.0
      4.9221727500       0.0000000000       0.0000000000
     -0.0000000000       4.9221727500       0.0000000000
      0.0000000000       0.0000000000       4.9221727500
K Ba
3 1
direct
   0.0000000000000000    0.5000000000000000    0.5000000000000000 K
   0.5000000000000000    0.0000000000000000    0.5000000000000000 K
   0.5000000000000000    0.5000000000000000    0.0000000000000000 K
   0.0000000000000000    0.0000000000000000    0.0000000000000000 Ba
