K3 Ba1
1.0
      6.2347521500       0.0000000000       0.0000000000
     -0.0000000000       6.2347521500       0.0000000000
      0.0000000000       0.0000000000       6.2347521500
K Ba
3 1
direct
   0.0000000000000000    0.5000000000000000    0.5000000000000000 K
   0.5000000000000000    0.0000000000000000    0.5000000000000000 K
   0.5000000000000000    0.5000000000000000    0.0000000000000000 K
   0.0000000000000000    0.0000000000000000    0.0000000000000000 Ba
