K3 Ba1
1.0
      5.2503176000       0.0000000000       0.0000000000
     -0.0000000000       5.2503176000       0.0000000000
      0.0000000000       0.0000000000       5.2503176000
K Ba
3 1
direct
   0.0000000000000000    0.5000000000000000    0.5000000000000000 K
   0.5000000000000000    0.0000000000000000    0.5000000000000000 K
   0.5000000000000000    0.5000000000000000    0.0000000000000000 K
   0.0000000000000000    0.0000000000000000    0.0000000000000000 Ba
