Rb3 Li1
1.0
      5.3610177338       0.0000000000       3.0951850318
      1.7870059113       5.0544159915       3.0951850318
      0.0000000000       0.0000000000       6.1903700635
Rb Li
3 1
direct
   0.2500000000000000    0.2500000000000000    0.2500000000000000 Rb
   0.7500000000000000    0.7500000000000000    0.7500000000000000 Rb
   0.5000000000000000    0.5000000000000000    0.5000000000000000 Rb
   0.0000000000000000    0.0000000000000000    0.0000000000000000 Li
