Rb3 Li1
1.0
      4.7303097651       0.0000000000       2.7310456163
      1.5767699217       4.4597788161       2.7310456163
      0.0000000000       0.0000000000       5.4620912325
Rb Li
3 1
direct
   0.2500000000000000    0.2500000000000000    0.2500000000000000 Rb
   0.7500000000000000    0.7500000000000000    0.7500000000000000 Rb
   0.5000000000000000    0.5000000000000000    0.5000000000000000 Rb
   0.0000000000000000    0.0000000000000000    0.0000000000000000 Li
