Rb3 Li1
1.0
      5.6763717182       0.0000000000       3.2772547395
      1.8921239061       5.3517345793       3.2772547395
      0.0000000000       0.0000000000       6.5545094790
Rb Li
3 1
direct
   0.2500000000000000    0.2500000000000000    0.2500000000000000 Rb
   0.7500000000000000    0.7500000000000000    0.7500000000000000 Rb
   0.5000000000000000    0.5000000000000000    0.5000000000000000 Rb
   0.0000000000000000    0.0000000000000000    0.0000000000000000 Li
