Li3 Tc1
1.0
      3.2949927694       0.0000000000      -3.3278651936
     -0.5574307819       3.2474987720      -3.3278651936
      0.0000000000       0.0000000000       4.6831254625
Li Tc
3 1
direct
   0.7500000000000000    0.2500000000000000    0.5000000000000000 Li
   0.2500000000000000    0.7500000000000000    0.5000000000000000 Li
   0.5000000000000000    0.5000000000000000    0.0000000000000000 Li
   0.0000000000000000    0.0000000000000000    0.0000000000000000 Tc
