Li3 Tc1
1.0
      2.6013100811       0.0000000000      -2.6272619950
     -0.4400769331       2.5638148200      -2.6272619950
      0.0000000000       0.0000000000       3.6972043125
Li Tc
3 1
direct
   0.7500000000000000    0.2500000000000000    0.5000000000000000 Li
   0.2500000000000000    0.7500000000000000    0.5000000000000000 Li
   0.5000000000000000    0.5000000000000000    0.0000000000000000 Li
   0.0000000000000000    0.0000000000000000    0.0000000000000000 Tc
