Ce6 Mg6
1.0
      5.4643381455       0.0000000000       0.0000000000
     -0.0000000000       3.0159665485       0.0000000000
      0.0000000000       0.0000000000      16.3862837625
Ce Mg
6 6
direct
   0.0000000000000000    0.5000000000000000    0.4930227000000000 Ce
   0.0000000000000000    0.5000000000000000    0.8483581600000000 Ce
   0.5000000000000000    0.5000000000000000    0.7171505000000000 Ce
   0.0000000000000000    0.0000000000000000    0.9930227000000000 Ce
   0.0000000000000000    0.0000000000000000    0.3483581600000000 Ce
   0.5000000000000000    0.0000000000000000    0.2171505000000000 Ce
   0.0000000000000000    0.0000000000000000    0.6657599500000000 Mg
   0.5000000000000000    0.0000000000000000    0.5485123000000000 Mg
   0.5000000000000000    0.0000000000000000    0.8938633900000000 Mg
   0.0000000000000000    0.5000000000000000    0.1657599500000000 Mg
   0.5000000000000000    0.5000000000000000    0.0485123000000000 Mg
   0.5000000000000000    0.5000000000000000    0.3938633900000000 Mg
