Li2 Mg2
1.0
      2.6721992000       0.0000000000       0.0000000000
      0.0000000000       3.9301000000       0.0000000000
      0.0000000000       0.0000000000       3.9471672000
Li Mg
2 2
direct
   0.0000000000000000    0.7500000000000000    0.7428830000000000 Li
   0.0000000000000000    0.2500000000000000    0.2571170000000000 Li
   0.5000000000000000    0.2500000000000000    0.7561270000000000 Mg
   0.5000000000000000    0.7500000000000000    0.2438730000000000 Mg
