Li1 Mg1
1.0
      2.6422228920       0.0000000000       0.0000000000
     -1.3211188727       2.2882278591       0.0000000000
      0.0000000000       0.0000000000       4.2716475280
Li Mg
1 1
direct
   0.0000000000000000    0.0000000000000000    0.0000000000000000 Li
   0.6666666666666666    0.3333333333333333    0.5000000000000000 Mg
