Li1 Mg1
1.0
      2.9530726440       0.0000000000       0.0000000000
     -1.4765446224       2.5574311366       0.0000000000
      0.0000000000       0.0000000000       4.7741942960
Li Mg
1 1
direct
   0.0000000000000000    0.0000000000000000    0.0000000000000000 Li
   0.6666666666666666    0.3333333333333333    0.5000000000000000 Mg
