Li1 Rh3
1.0
      2.0536050512       0.0000000000       0.5595761207
     -0.4644402117       3.2678291156       1.7044629489
      0.0000000000       0.0000000000       4.0480811920
Li Rh
1 3
direct
   0.0000000000000000    0.0125083500000000    0.0000000000000000 Li
   0.2445333300000000    0.9388587600000000    0.5109333500000000 Rh
   0.7554666700000000    0.4497921100000000    0.4890666500000000 Rh
   0.5000000000000000    0.5018407700000000    0.0000000000000000 Rh
