Li6 Sc2
1.0
      4.9851646640       0.0000000000       0.0000000000
     -2.4925821941       4.3172793207       0.0000000000
      0.0000000000       0.0000000000       3.9461328000
Li Sc
6 2
direct
   0.1608710000000000    0.3217410000000000    0.2500000000000000 Li
   0.6782589999999999    0.8391290000000000    0.2500000000000000 Li
   0.1608710000000000    0.8391290000000000    0.2500000000000000 Li
   0.8391290000000000    0.6782589999999999    0.7500000000000000 Li
   0.3217410000000000    0.1608710000000000    0.7500000000000000 Li
   0.8391290000000000    0.1608710000000000    0.7500000000000000 Li
   0.3333333333333333    0.6666666666666666    0.7500000000000000 Sc
   0.6666666666666666    0.3333333333333333    0.2500000000000000 Sc
