Li2 B2
1.0
      2.2162211608       0.0000000000       1.2795358838
      0.7387403869       2.0894733485       1.2795358838
      0.0000000000       0.0000000000       2.5590717675
Li B
2 2
direct
   0.5000000000000000    0.5000000000000000    0.5000000000000000 Li
   0.7500000000000000    0.7500000000000000    0.7500000000000000 Li
   0.2500000000000000    0.2500000000000000    0.2500000000000000 B
   0.0000000000000000    0.0000000000000000    0.0000000000000000 B
