Li1 Cu3
1.0
      3.3209729593       0.0000000000       1.9173646320
      1.1069909864       3.1310433328       1.9173646320
      0.0000000000       0.0000000000       3.8347292640
Li Cu
1 3
direct
   0.7499990000000000    0.7499990000000000    0.7499990000000000 Li
   0.0000000000000000    0.0000000000000000    0.0000000000000000 Cu
   0.5000000000000000    0.5000000000000000    0.5000000000000000 Cu
   0.2500010000000000    0.2500010000000000    0.2500010000000000 Cu
