Cu6 Se6
1.0
      3.1610112000       0.0000000000       0.0000000000
     -1.5805055990       2.7375160014       0.0000000000
      0.0000000000       0.0000000000      14.0011864000
Cu Se
6 6
direct
   0.6666666666666666    0.3333333333333333    0.5377220000000000 Cu
   0.3333333333333333    0.6666666666666666    0.0377220000000000 Cu
   0.6666666666666666    0.3333333333333333    0.9622780000000000 Cu
   0.6666666666666666    0.3333333333333333    0.2500000000000000 Cu
   0.3333333333333333    0.6666666666666666    0.7500000000000000 Cu
   0.3333333333333333    0.6666666666666666    0.4622780000000000 Cu
   0.0000000000000000    0.0000000000000000    0.4131040000000000 Se
   0.0000000000000000    0.0000000000000000    0.9131040000000000 Se
   0.0000000000000000    0.0000000000000000    0.0868960000000000 Se
   0.3333333333333333    0.6666666666666666    0.2500000000000000 Se
   0.6666666666666666    0.3333333333333333    0.7500000000000000 Se
   0.0000000000000000    0.0000000000000000    0.5868960000000000 Se
