K1 Ac3
1.0
      4.5948800000       0.0000000000       0.0000000000
     -0.0000000000       4.5948800000       0.0000000000
      0.0000000000       0.0000000000       4.5948800000
K Ac
1 3
direct
   0.0000000000000000    0.0000000000000000    0.0000000000000000 K
   0.5000000000000000    0.0000000000000000    0.5000000000000000 Ac
   0.0000000000000000    0.5000000000000000    0.5000000000000000 Ac
   0.5000000000000000    0.5000000000000000    0.0000000000000000 Ac
