La2 Zn26
1.0
      5.5388619018       0.0000000000       3.1978634100
      1.8462873006       5.2220890811       3.1978634100
      0.0000000000       0.0000000000       6.3957268200
La Zn
2 26
direct
   0.7500000000000000    0.7500000000000000    0.7500000000000000 La
   0.2500000000000000    0.2500000000000000    0.2500000000000000 La
   0.5000000000000000    0.5000000000000000    0.5000000000000000 Zn
   0.0000000000000000    0.0000000000000000    0.0000000000000000 Zn
   0.7994684500000000    0.4420621200000000    0.2005315500000000 Zn
   0.2005315500000000    0.5579378800000000    0.7994684500000000 Zn
   0.5579378800000000    0.2005315500000000    0.4420621200000000 Zn
   0.4420621200000000    0.7994684500000000    0.5579378800000000 Zn
   0.2994684500000000    0.0579378800000000    0.7005315500000000 Zn
   0.7005315500000000    0.9420621200000000    0.2994684500000000 Zn
   0.9420621200000000    0.7005315500000000    0.0579378800000000 Zn
   0.0579378800000000    0.2994684500000000    0.9420621200000000 Zn
   0.4420621200000000    0.2005315500000000    0.7994684500000000 Zn
   0.5579378800000000    0.7994684500000000    0.2005315500000000 Zn
   0.2005315500000000    0.4420621200000000    0.5579378800000000 Zn
   0.7994684500000000    0.5579378800000000    0.4420621200000000 Zn
   0.0579378800000000    0.7005315500000000    0.2994684500000000 Zn
   0.9420621200000000    0.2994684500000000    0.7005315500000000 Zn
   0.7005315500000000    0.0579378800000000    0.9420621200000000 Zn
   0.2994684500000000    0.9420621200000000    0.0579378800000000 Zn
   0.2005315500000000    0.7994684500000000    0.4420621200000000 Zn
   0.7994684500000000    0.2005315500000000    0.5579378800000000 Zn
   0.4420621200000000    0.5579378800000000    0.2005315500000000 Zn
   0.5579378800000000    0.4420621200000000    0.7994684500000000 Zn
   0.7005315500000000    0.2994684500000000    0.0579378800000000 Zn
   0.2994684500000000    0.7005315500000000    0.9420621200000000 Zn
   0.0579378800000000    0.9420621200000000    0.7005315500000000 Zn
   0.9420621200000000    0.0579378800000000    0.2994684500000000 Zn
