Cu1 F1
1.0
      2.6711472503       0.0000000000       1.5421875840
      0.8903824168       2.5183817790       1.5421875840
      0.0000000000       0.0000000000       3.0843751680
Cu F
1 1
direct
   0.0000000000000000    0.0000000000000000    0.0000000000000000 Cu
   0.7500000000000000    0.7500000000000000    0.7500000000000000 F
