Cu1 F1
1.0
      2.8195443198       0.0000000000       1.6278646720
      0.9398481066       2.6582918778       1.6278646720
      0.0000000000       0.0000000000       3.2557293440
Cu F
1 1
direct
   0.0000000000000000    0.0000000000000000    0.0000000000000000 Cu
   0.7500000000000000    0.7500000000000000    0.7500000000000000 F
