Cu1 F1
1.0
      2.3743531114       0.0000000000       1.3708334080
      0.7914510371       2.2385615813       1.3708334080
      0.0000000000       0.0000000000       2.7416668160
Cu F
1 1
direct
   0.0000000000000000    0.0000000000000000    0.0000000000000000 Cu
   0.7500000000000000    0.7500000000000000    0.7500000000000000 F
