Cu1 F1
1.0
      2.2259560419       0.0000000000       1.2851563200
      0.7419853473       2.0986514825       1.2851563200
      0.0000000000       0.0000000000       2.5703126400
Cu F
1 1
direct
   0.0000000000000000    0.0000000000000000    0.0000000000000000 Cu
   0.7500000000000000    0.7500000000000000    0.7500000000000000 F
