Cu1 F1
1.0
      2.5227501808       0.0000000000       1.4565104960
      0.8409167269       2.3784716801       1.4565104960
      0.0000000000       0.0000000000       2.9130209920
Cu F
1 1
direct
   0.0000000000000000    0.0000000000000000    0.0000000000000000 Cu
   0.7500000000000000    0.7500000000000000    0.7500000000000000 F
