V1 Zn3
1.0
      3.4069324410       0.0000000000       0.0000000000
     -0.0000000000       3.4069333500       0.0000000000
      0.0000000000       0.0000000000       3.4069333500
V Zn
1 3
direct
   0.0000000000000000    0.0000000000000000    0.0000000000000000 V
   0.0000000000000000    0.5000000000000000    0.5000000000000000 Zn
   0.5000000000000000    0.5000000000000000    0.0000000000000000 Zn
   0.5000000000000000    0.0000000000000000    0.5000000000000000 Zn
