V1 Zn3
1.0
      2.8391103675       0.0000000000       0.0000000000
     -0.0000000000       2.8391111250       0.0000000000
      0.0000000000       0.0000000000       2.8391111250
V Zn
1 3
direct
   0.0000000000000000    0.0000000000000000    0.0000000000000000 V
   0.0000000000000000    0.5000000000000000    0.5000000000000000 Zn
   0.5000000000000000    0.5000000000000000    0.0000000000000000 Zn
   0.5000000000000000    0.0000000000000000    0.5000000000000000 Zn
