Li6 Zn2
1.0
      4.8419893255       0.0000000000       0.0000000000
     -2.4210045005       4.1932800809       0.0000000000
      0.0000000000       0.0000000000       3.9203880115
Li Zn
6 2
direct
   0.1721467400000000    0.3442944800000000    0.2500000000000000 Li
   0.6557055200000000    0.8278532600000000    0.2500000000000000 Li
   0.1721467400000000    0.8278532600000000    0.2500000000000000 Li
   0.8278532600000000    0.6557055200000000    0.7500000000000000 Li
   0.3442944800000000    0.1721467400000000    0.7500000000000000 Li
   0.8278532600000000    0.1721467400000000    0.7500000000000000 Li
   0.3333333333333333    0.6666666666666666    0.7500000000000000 Zn
   0.6666666666666666    0.3333333333333333    0.2500000000000000 Zn
