K3 Tm1
1.0
      4.8594280000       0.0000000000       0.0000000000
     -0.0000000000       4.8594280000       0.0000000000
      0.0000000000       0.0000000000       4.8594280000
K Tm
3 1
direct
   0.0000000000000000    0.5000000000000000    0.5000000000000000 K
   0.5000000000000000    0.0000000000000000    0.5000000000000000 K
   0.5000000000000000    0.5000000000000000    0.0000000000000000 K
   0.0000000000000000    0.0000000000000000    0.0000000000000000 Tm
