K3 Tm1
1.0
      5.1631422500       0.0000000000       0.0000000000
     -0.0000000000       5.1631422500       0.0000000000
      0.0000000000       0.0000000000       5.1631422500
K Tm
3 1
direct
   0.0000000000000000    0.5000000000000000    0.5000000000000000 K
   0.5000000000000000    0.0000000000000000    0.5000000000000000 K
   0.5000000000000000    0.5000000000000000    0.0000000000000000 K
   0.0000000000000000    0.0000000000000000    0.0000000000000000 Tm
