Mg3 Cu1
1.0
      3.4505758084       0.0000000000      -2.8301590628
     -0.3568809274       2.4568390633      -3.7084837267
      0.0000000000       0.0000000000       4.4627652560
Mg Cu
3 1
direct
   0.7925083200000000    0.7180033600000000    0.0745039500000000 Mg
   0.0866054000000000    0.5000000000000000    0.5866054000000001 Mg
   0.3565005900000000    0.2819966400000000    0.0745039500000000 Mg
   0.5977127000000000    0.0000000000000000    0.5977127000000000 Cu
