Mg3 Cu1
1.0
      3.8818977845       0.0000000000      -3.1839289456
     -0.4014910433       2.7639439462      -4.1720441925
      0.0000000000       0.0000000000       5.0206109130
Mg Cu
3 1
direct
   0.7925083200000000    0.7180033600000000    0.0745039500000000 Mg
   0.0866054000000000    0.5000000000000000    0.5866054000000001 Mg
   0.3565005900000000    0.2819966400000000    0.0745039500000000 Mg
   0.5977127000000000    0.0000000000000000    0.5977127000000000 Cu
