Mg3 Cu1
1.0
      3.2349148204       0.0000000000      -2.6532741213
     -0.3345758694       2.3032866218      -3.4767034938
      0.0000000000       0.0000000000       4.1838424275
Mg Cu
3 1
direct
   0.7925083200000000    0.7180033600000000    0.0745039500000000 Mg
   0.0866054000000000    0.5000000000000000    0.5866054000000001 Mg
   0.3565005900000000    0.2819966400000000    0.0745039500000000 Mg
   0.5977127000000000    0.0000000000000000    0.5977127000000000 Cu
