Cu1 I4
1.0
      4.1598615885       0.0000000000      -5.0036544536
      0.8353783006       4.0753602849      -5.0059530874
      0.0000000000       0.0000000000       7.0696746040
Cu I
1 4
direct
   0.0148529700000000    0.0149419500000000    0.9999755400000000 Cu
   0.3531236800000000    0.3530294800000000    0.4657059100000000 I
   0.8884949900000000    0.8883962300000000    0.5347161600000000 I
   0.1269501900000000    0.6166561000000000    0.9996924100000000 I
   0.6165781600000000    0.1269762500000000    0.9999099800000000 I
