Li2 Te1
1.0
      3.5899566176       0.0000000000       2.0726623694
      1.1966516005       3.3846435072       2.0726623698
      0.0000000000       0.0000000000       4.1453238240
Li Te
2 1
direct
   0.2500000000000000    0.2500000000000000    0.2500000000000000 Li
   0.7500000000000000    0.7500000000000000    0.7500000000000000 Li
   0.0000000000000000    0.0000000000000000    0.0000000000000000 Te
