Li2 Te1
1.0
      3.7893986519       0.0000000000       2.1878102788
      1.2631322450       3.5726792576       2.1878102792
      0.0000000000       0.0000000000       4.3756195920
Li Te
2 1
direct
   0.2500000000000000    0.2500000000000000    0.2500000000000000 Li
   0.7500000000000000    0.7500000000000000    0.7500000000000000 Li
   0.0000000000000000    0.0000000000000000    0.0000000000000000 Te
