Li2 Te1
1.0
      3.1910725489       0.0000000000       1.8423665506
      1.0636903116       3.0085720064       1.8423665509
      0.0000000000       0.0000000000       3.6847322880
Li Te
2 1
direct
   0.2500000000000000    0.2500000000000000    0.2500000000000000 Li
   0.7500000000000000    0.7500000000000000    0.7500000000000000 Li
   0.0000000000000000    0.0000000000000000    0.0000000000000000 Te
