Li2 Te1
1.0
      3.3905145833       0.0000000000       1.9575144600
      1.1301709560       3.1966077568       1.9575144604
      0.0000000000       0.0000000000       3.9150280560
Li Te
2 1
direct
   0.2500000000000000    0.2500000000000000    0.2500000000000000 Li
   0.7500000000000000    0.7500000000000000    0.7500000000000000 Li
   0.0000000000000000    0.0000000000000000    0.0000000000000000 Te
