Li4 O4
1.0
      3.1693836825       0.0000000000       0.0000000000
     -1.5846912194       2.7447671424       0.0000000000
      0.0000000000       0.0000000000       7.5054512500
Li O
4 4
direct
   0.6666666666666666    0.3333333333333333    0.3976270000000000 Li
   0.3333333333333333    0.6666666666666666    0.8976270000000000 Li
   0.6666666666666666    0.3333333333333333    0.1023730000000000 Li
   0.3333333333333333    0.6666666666666666    0.6023730000000000 Li
   0.6666666666666666    0.3333333333333333    0.6538630000000000 O
   0.6666666666666666    0.3333333333333333    0.8461370000000000 O
   0.3333333333333333    0.6666666666666666    0.1538630000000000 O
   0.3333333333333333    0.6666666666666666    0.3461370000000000 O
