Li1 Sb3
1.0
      3.7448168000       0.0000000000       0.0000000000
     -0.0000000000       3.7448168000       0.0000000000
      0.0000000000       0.0000000000       3.7448168000
Li Sb
1 3
direct
   0.0000000000000000    0.0000000000000000    0.0000000000000000 Li
   0.5000000000000000    0.0000000000000000    0.5000000000000000 Sb
   0.0000000000000000    0.5000000000000000    0.5000000000000000 Sb
   0.5000000000000000    0.5000000000000000    0.0000000000000000 Sb
