Nb6 Zn7
1.0
      4.4249786093       0.0000000000       1.2143477134
      2.0458629845       3.9236315972       1.2143479066
      0.0000000000       0.0000000000       8.6692952610
Nb Zn
6 7
direct
   0.8355120000000000    0.8355120000000000    0.4934650000000000 Nb
   0.1644880000000000    0.1644880000000000    0.5065350000000000 Nb
   0.6499920000000000    0.6499920000000000    0.0500230000000000 Nb
   0.3500080000000000    0.3500080000000000    0.9499770000000000 Nb
   0.5448710000000000    0.5448710000000000    0.3653870000000000 Nb
   0.4551290000000000    0.4551290000000000    0.6346130000000000 Nb
   0.0000000000000000    0.0000000000000000    0.0000000000000000 Zn
   0.9065870000000000    0.9065870000000000    0.7726380000000000 Zn
   0.4141870000000000    0.9065870000000000    0.7726380000000000 Zn
   0.9065870000000000    0.4141870000000000    0.7726380000000000 Zn
   0.0934130000000000    0.0934130000000000    0.2273620000000000 Zn
   0.5858130000000000    0.0934130000000000    0.2273620000000000 Zn
   0.0934130000000000    0.5858130000000000    0.2273620000000000 Zn
