K3 V1
1.0
      4.2620344633       0.0000000000      -3.6667205765
     -0.8972531899       4.1665182682      -3.6667205765
      0.0000000000       0.0000000000       5.6222573360
K V
3 1
direct
   0.7500000000000000    0.2500000000000000    0.5000000000000000 K
   0.2500000000000000    0.7500000000000000    0.5000000000000000 K
   0.5000000000000000    0.5000000000000000    0.0000000000000000 K
   0.0000000000000000    0.0000000000000000    0.0000000000000000 V
