K3 V1
1.0
      4.5284116172       0.0000000000      -3.8958906125
     -0.9533315143       4.4269256600      -3.8958906125
      0.0000000000       0.0000000000       5.9736484195
K V
3 1
direct
   0.7500000000000000    0.2500000000000000    0.5000000000000000 K
   0.2500000000000000    0.7500000000000000    0.5000000000000000 K
   0.5000000000000000    0.5000000000000000    0.0000000000000000 K
   0.0000000000000000    0.0000000000000000    0.0000000000000000 V
