K3 V1
1.0
      4.7947887712       0.0000000000      -4.1250606486
     -1.0094098387       4.6873330517      -4.1250606486
      0.0000000000       0.0000000000       6.3250395030
K V
3 1
direct
   0.7500000000000000    0.2500000000000000    0.5000000000000000 K
   0.2500000000000000    0.7500000000000000    0.5000000000000000 K
   0.5000000000000000    0.5000000000000000    0.0000000000000000 K
   0.0000000000000000    0.0000000000000000    0.0000000000000000 V
