K3 V1
1.0
      3.9956573093       0.0000000000      -3.4375505405
     -0.8411748656       3.9061108764      -3.4375505405
      0.0000000000       0.0000000000       5.2708662525
K V
3 1
direct
   0.7500000000000000    0.2500000000000000    0.5000000000000000 K
   0.2500000000000000    0.7500000000000000    0.5000000000000000 K
   0.5000000000000000    0.5000000000000000    0.0000000000000000 K
   0.0000000000000000    0.0000000000000000    0.0000000000000000 V
