K3 V1
1.0
      5.0611659251       0.0000000000      -4.3542306846
     -1.0654881630       4.9477404435      -4.3542306846
      0.0000000000       0.0000000000       6.6764305865
K V
3 1
direct
   0.7500000000000000    0.2500000000000000    0.5000000000000000 K
   0.2500000000000000    0.7500000000000000    0.5000000000000000 K
   0.5000000000000000    0.5000000000000000    0.0000000000000000 K
   0.0000000000000000    0.0000000000000000    0.0000000000000000 V
