In2 Cu2
1.0
      3.1313771400       0.0000000000       0.0000000000
     -1.5656889527       2.7143951327       0.0000000000
      0.0000000000       0.0000000000       3.7017411900
In Cu
2 2
direct
   0.3330972500000000    0.6661945000000000    0.2500000000000000 In
   0.6669027500000000    0.3338055000000000    0.7500000000000000 In
   0.0000000000000000    0.0000000000000000    0.5000000000000000 Cu
   0.0000000000000000    0.0000000000000000    0.0000000000000000 Cu
