In2 Cu2
1.0
      3.5488940920       0.0000000000       0.0000000000
     -1.7744474797       3.0763144837       0.0000000000
      0.0000000000       0.0000000000       4.1953066820
In Cu
2 2
direct
   0.3330972500000000    0.6661945000000000    0.2500000000000000 In
   0.6669027500000000    0.3338055000000000    0.7500000000000000 In
   0.0000000000000000    0.0000000000000000    0.5000000000000000 Cu
   0.0000000000000000    0.0000000000000000    0.0000000000000000 Cu
