Sc1 Zn12
1.0
      3.7515668616       0.0000000000       1.5438698588
      1.8726664698       4.9167115979       0.7662331408
      0.0000000000       0.0000000000       5.3167685760
Sc Zn
1 12
direct
   0.0000000000000000    0.0000000000000000    0.0000000000000000 Sc
   0.5000000000000000    0.0000000000000000    0.5000000000000000 Zn
   0.0000000000000000    0.5000000000000000    0.0000000000000000 Zn
   0.5000000000000000    0.5000000000000000    0.0000000000000000 Zn
   0.0000000000000000    0.0000000000000000    0.5000000000000000 Zn
   0.3512587900000000    0.6485956500000000    0.6485956500000000 Zn
   0.0000000000000000    0.3517916900000000    0.6482083100000000 Zn
   0.0000000000000000    0.6482083100000000    0.3517916900000000 Zn
   0.6487412100000000    0.3514043500000000    0.3514043500000000 Zn
   0.2863733500000000    0.2137846700000000    0.2137846700000000 Zn
   0.5000000000000000    0.7862354100000000    0.2137645900000000 Zn
   0.5000000000000000    0.2137645900000000    0.7862354100000000 Zn
   0.7136266500000000    0.7862153300000000    0.7862153300000000 Zn
