Mn1 O1
1.0
      2.3784105178       0.0000000000       1.3712049367
      1.5865527968       2.2427203069       0.0000052876
      0.0000000000       0.0000000000       2.7523475760
Mn O
1 1
direct
   0.0003970000000000    0.4998010000000000    0.4993350000000000 Mn
   0.4996040000000000    0.2501980000000000    0.7506640000000000 O
