Mn1 O1
1.0
      2.2297598604       0.0000000000       1.2855046281
      1.4873932470       2.1025502877       0.0000049571
      0.0000000000       0.0000000000       2.5803258525
Mn O
1 1
direct
   0.0003970000000000    0.4998010000000000    0.4993350000000000 Mn
   0.4996040000000000    0.2501980000000000    0.7506640000000000 O
