Mn1 O1
1.0
      2.8243624899       0.0000000000       1.6283058623
      1.8840314461       2.6632303644       0.0000062790
      0.0000000000       0.0000000000       3.2684127465
Mn O
1 1
direct
   0.0003970000000000    0.4998010000000000    0.4993350000000000 Mn
   0.4996040000000000    0.2501980000000000    0.7506640000000000 O
