Mn1 O1
1.0
      2.6757118325       0.0000000000       1.5426055537
      1.7848718963       2.5230603452       0.0000059486
      0.0000000000       0.0000000000       3.0963910230
Mn O
1 1
direct
   0.0003970000000000    0.4998010000000000    0.4993350000000000 Mn
   0.4996040000000000    0.2501980000000000    0.7506640000000000 O
