Mn1 O1
1.0
      2.5270611751       0.0000000000       1.4569052452
      1.6857123465       2.3828903260       0.0000056181
      0.0000000000       0.0000000000       2.9243692995
Mn O
1 1
direct
   0.0003970000000000    0.4998010000000000    0.4993350000000000 Mn
   0.4996040000000000    0.2501980000000000    0.7506640000000000 O
