Li3 Ge1
1.0
      3.5851335038       0.0000000000       2.0698777935
      1.1950445013       3.3800962827       2.0698777935
      0.0000000000       0.0000000000       4.1397555870
Li Ge
3 1
direct
   0.0000000000000000    0.0000000000000000    0.0000000000000000 Li
   0.5000010000000000    0.5000010000000000    0.5000010000000000 Li
   0.2500000000000000    0.2500000000000000    0.2500000000000000 Li
   0.7500000000000000    0.7500000000000000    0.7500000000000000 Ge
