Li3 Ge1
1.0
      3.3964422668       0.0000000000       1.9609368570
      1.1321474223       3.2021964783       1.9609368570
      0.0000000000       0.0000000000       3.9218737140
Li Ge
3 1
direct
   0.0000000000000000    0.0000000000000000    0.0000000000000000 Li
   0.5000010000000000    0.5000010000000000    0.5000010000000000 Li
   0.2500000000000000    0.2500000000000000    0.2500000000000000 Li
   0.7500000000000000    0.7500000000000000    0.7500000000000000 Ge
