Li1 Pd1
1.0
      2.6374148615       0.0000000000       0.0000000000
     -1.3187069419       2.2840684539       0.0000000000
      0.0000000000       0.0000000000       3.9009059790
Li Pd
1 1
direct
   0.0000000000000000    0.0000000000000000    0.0000000000000000 Li
   0.3333333333333333    0.6666666666666666    0.5000000000000000 Pd
