K6 Sr2
1.0
      6.9051512775       0.0000000000       0.0000000000
     -3.4525759132       5.9800362648       0.0000000000
      0.0000000000       0.0000000000       5.6329650000
K Sr
6 2
direct
   0.1679430000000000    0.3358860000000000    0.2500000000000000 K
   0.6641140000000000    0.8320570000000000    0.2500000000000000 K
   0.1679430000000000    0.8320570000000000    0.2500000000000000 K
   0.8320570000000000    0.6641140000000000    0.7500000000000000 K
   0.3358860000000000    0.1679430000000000    0.7500000000000000 K
   0.8320570000000000    0.1679430000000000    0.7500000000000000 K
   0.3333333333333333    0.6666666666666666    0.7500000000000000 Sr
   0.6666666666666666    0.3333333333333333    0.2500000000000000 Sr
