K6 Sr2
1.0
      8.2861815330       0.0000000000       0.0000000000
     -4.1430910959       7.1760435178       0.0000000000
      0.0000000000       0.0000000000       6.7595580000
K Sr
6 2
direct
   0.1679430000000000    0.3358860000000000    0.2500000000000000 K
   0.6641140000000000    0.8320570000000000    0.2500000000000000 K
   0.1679430000000000    0.8320570000000000    0.2500000000000000 K
   0.8320570000000000    0.6641140000000000    0.7500000000000000 K
   0.3358860000000000    0.1679430000000000    0.7500000000000000 K
   0.8320570000000000    0.1679430000000000    0.7500000000000000 K
   0.3333333333333333    0.6666666666666666    0.7500000000000000 Sr
   0.6666666666666666    0.3333333333333333    0.2500000000000000 Sr
