Cu6 O8
1.0
      5.2054718404       0.0000000000      -1.8918681940
     -2.0266084528       4.4214988004      -2.6458876540
      0.0000000000       0.0000000000       5.5373206700
Cu O
6 8
direct
   0.0000000000000000    0.0000000000000000    0.5000000000000000 Cu
   0.0000000000000000    0.5000000000000000    0.5000000000000000 Cu
   0.0000000000000000    0.5000000000000000    0.0000000000000000 Cu
   0.5000000000000000    0.5000000000000000    0.5000000000000000 Cu
   0.0000000000000000    0.0000000000000000    0.0000000000000000 Cu
   0.5000000000000000    0.0000000000000000    0.0000000000000000 Cu
   0.8036139600000000    0.7499021700000000    0.5535176000000001 O
   0.6646432600000000    0.2448328700000000    0.4198206100000000 O
   0.8036516500000001    0.2499457100000000    0.0535653000000000 O
   0.8250297900000000    0.7447018399999999    0.0800456800000000 O
   0.1749702100000000    0.2552981600000000    0.9199543200000000 O
   0.1963483500000000    0.7500542900000000    0.9464347000000000 O
   0.3353567400000000    0.7551671300000000    0.5801793900000000 O
   0.1963860400000000    0.2500978300000000    0.4464824000000000 O
