Mg8 O8
1.0
      2.2399128268       0.0000000000      14.8749640349
      1.1136779663       1.9434327513      14.8749640349
      0.0000000000       0.0000000000      15.0426650775
Mg O
8 8
direct
   0.3756060000000000    0.3756060000000000    0.3756060000000000 Mg
   0.6243940000000000    0.6243940000000000    0.6243940000000000 Mg
   0.7922709999999999    0.7922709999999999    0.7922709999999999 Mg
   0.2077290000000000    0.2077290000000000    0.2077290000000000 Mg
   0.9154400000000000    0.9154400000000000    0.9154400000000000 Mg
   0.0845600000000000    0.0845600000000000    0.0845600000000000 Mg
   0.5000000000000000    0.5000000000000000    0.5000000000000000 Mg
   0.0000000000000000    0.0000000000000000    0.0000000000000000 Mg
   0.1461350000000000    0.1461350000000000    0.1461350000000000 O
   0.8538650000000000    0.8538650000000000    0.8538650000000000 O
   0.4384170000000000    0.4384170000000000    0.4384170000000000 O
   0.5615830000000001    0.5615830000000001    0.5615830000000001 O
   0.3128750000000000    0.3128750000000000    0.3128750000000000 O
   0.6871250000000000    0.6871250000000000    0.6871250000000000 O
   0.2692360000000000    0.2692360000000000    0.2692360000000000 O
   0.7307640000000000    0.7307640000000000    0.7307640000000000 O
