Li6 Pm2
1.0
      5.6983997705       0.0000000000       0.0000000000
     -2.8491996596       4.9349590925       0.0000000000
      0.0000000000       0.0000000000       4.3177543500
Li Pm
6 2
direct
   0.8519010000000000    0.1480990000000000    0.7500000000000000 Li
   0.2961970000000000    0.1480990000000000    0.7500000000000000 Li
   0.8519010000000000    0.7038030000000000    0.7500000000000000 Li
   0.1480990000000000    0.8519010000000000    0.2500000000000000 Li
   0.7038030000000000    0.8519010000000000    0.2500000000000000 Li
   0.1480990000000000    0.2961970000000000    0.2500000000000000 Li
   0.6666666666666666    0.3333333333333333    0.2500000000000000 Pm
   0.3333333333333333    0.6666666666666666    0.7500000000000000 Pm
