Li6 Pm2
1.0
      6.0335997570       0.0000000000       0.0000000000
     -3.0167996396       5.2252508038       0.0000000000
      0.0000000000       0.0000000000       4.5717399000
Li Pm
6 2
direct
   0.8519010000000000    0.1480990000000000    0.7500000000000000 Li
   0.2961970000000000    0.1480990000000000    0.7500000000000000 Li
   0.8519010000000000    0.7038030000000000    0.7500000000000000 Li
   0.1480990000000000    0.8519010000000000    0.2500000000000000 Li
   0.7038030000000000    0.8519010000000000    0.2500000000000000 Li
   0.1480990000000000    0.2961970000000000    0.2500000000000000 Li
   0.6666666666666666    0.3333333333333333    0.2500000000000000 Pm
   0.3333333333333333    0.6666666666666666    0.7500000000000000 Pm
