Li2 Te1
1.0
      2.9916305146       0.0000000000       1.7272186412
      0.9972096671       2.8205362560       1.7272186415
      0.0000000000       0.0000000000       3.4544365200
Li Te
2 1
direct
   0.2500000000000000    0.2500000000000000    0.2500000000000000 Li
   0.7500000000000000    0.7500000000000000    0.7500000000000000 Li
   0.0000000000000000    0.0000000000000000    0.0000000000000000 Te
