Mn3 Ga1
1.0
      3.2292444323       0.0000000000      -2.5833072409
     -0.7459881096       3.1418977297      -2.5833072409
      0.0000000000       0.0000000000       4.1353954955
Mn Ga
3 1
direct
   0.7500000000000000    0.2500000000000000    0.5000000000000000 Mn
   0.2500000000000000    0.7500000000000000    0.5000000000000000 Mn
   0.5000000000000000    0.5000000000000000    0.0000000000000000 Mn
   0.0000000000000000    0.0000000000000000    0.0000000000000000 Ga
