Mn3 Ga1
1.0
      2.8893239657       0.0000000000      -2.3113801629
     -0.6674630454       2.8111716529      -2.3113801629
      0.0000000000       0.0000000000       3.7000907065
Mn Ga
3 1
direct
   0.7500000000000000    0.2500000000000000    0.5000000000000000 Mn
   0.2500000000000000    0.7500000000000000    0.5000000000000000 Mn
   0.5000000000000000    0.5000000000000000    0.0000000000000000 Mn
   0.0000000000000000    0.0000000000000000    0.0000000000000000 Ga
