Mn3 Ga1
1.0
      2.7193637325       0.0000000000      -2.1754166239
     -0.6282005133       2.6458086145      -2.1754166239
      0.0000000000       0.0000000000       3.4824383120
Mn Ga
3 1
direct
   0.7500000000000000    0.2500000000000000    0.5000000000000000 Mn
   0.2500000000000000    0.7500000000000000    0.5000000000000000 Mn
   0.5000000000000000    0.5000000000000000    0.0000000000000000 Mn
   0.0000000000000000    0.0000000000000000    0.0000000000000000 Ga
