Mn3 Ga1
1.0
      2.5494034992       0.0000000000      -2.0394530849
     -0.5889379812       2.4804455761      -2.0394530849
      0.0000000000       0.0000000000       3.2647859175
Mn Ga
3 1
direct
   0.7500000000000000    0.2500000000000000    0.5000000000000000 Mn
   0.2500000000000000    0.7500000000000000    0.5000000000000000 Mn
   0.5000000000000000    0.5000000000000000    0.0000000000000000 Mn
   0.0000000000000000    0.0000000000000000    0.0000000000000000 Ga
