Mn3 Ga1
1.0
      3.0592841990       0.0000000000      -2.4473437019
     -0.7067255775       2.9765346913      -2.4473437019
      0.0000000000       0.0000000000       3.9177431010
Mn Ga
3 1
direct
   0.7500000000000000    0.2500000000000000    0.5000000000000000 Mn
   0.2500000000000000    0.7500000000000000    0.5000000000000000 Mn
   0.5000000000000000    0.5000000000000000    0.0000000000000000 Mn
   0.0000000000000000    0.0000000000000000    0.0000000000000000 Ga
