K3 Mo1
1.0
      4.3373649698       0.0000000000      -3.3489899313
     -1.0468228600       4.2091444239      -3.3489899313
      0.0000000000       0.0000000000       5.4798237600
K Mo
3 1
direct
   0.7500000000000000    0.2500000000000000    0.5000000000000000 K
   0.2500000000000000    0.7500000000000000    0.5000000000000000 K
   0.5000000000000000    0.5000000000000000    0.0000000000000000 K
   0.0000000000000000    0.0000000000000000    0.0000000000000000 Mo
