K3 Mo1
1.0
      4.0662796592       0.0000000000      -3.1396780605
     -0.9813964312       3.9460728974      -3.1396780605
      0.0000000000       0.0000000000       5.1373347750
K Mo
3 1
direct
   0.7500000000000000    0.2500000000000000    0.5000000000000000 K
   0.2500000000000000    0.7500000000000000    0.5000000000000000 K
   0.5000000000000000    0.5000000000000000    0.0000000000000000 K
   0.0000000000000000    0.0000000000000000    0.0000000000000000 Mo
