K3 Mo1
1.0
      5.1506209016       0.0000000000      -3.9769255434
     -1.2431021462       4.9983590033      -3.9769255434
      0.0000000000       0.0000000000       6.5072907150
K Mo
3 1
direct
   0.7500000000000000    0.2500000000000000    0.5000000000000000 K
   0.2500000000000000    0.7500000000000000    0.5000000000000000 K
   0.5000000000000000    0.5000000000000000    0.0000000000000000 K
   0.0000000000000000    0.0000000000000000    0.0000000000000000 Mo
