K3 Mo1
1.0
      4.8795355910       0.0000000000      -3.7676136727
     -1.1776757175       4.7352874768      -3.7676136727
      0.0000000000       0.0000000000       6.1648017300
K Mo
3 1
direct
   0.7500000000000000    0.2500000000000000    0.5000000000000000 K
   0.2500000000000000    0.7500000000000000    0.5000000000000000 K
   0.5000000000000000    0.5000000000000000    0.0000000000000000 K
   0.0000000000000000    0.0000000000000000    0.0000000000000000 Mo
