K3 Mo1
1.0
      4.6084502804       0.0000000000      -3.5583018020
     -1.1122492887       4.4722159504      -3.5583018020
      0.0000000000       0.0000000000       5.8223127450
K Mo
3 1
direct
   0.7500000000000000    0.2500000000000000    0.5000000000000000 K
   0.2500000000000000    0.7500000000000000    0.5000000000000000 K
   0.5000000000000000    0.5000000000000000    0.0000000000000000 K
   0.0000000000000000    0.0000000000000000    0.0000000000000000 Mo
