K3 Tl1
1.0
      5.6110990000       0.0000000000       0.0000000000
     -0.0000000000       5.6110990000       0.0000000000
      0.0000000000       0.0000000000       5.6110990000
K Tl
3 1
direct
   0.0000000000000000    0.5000000000000000    0.5000000000000000 K
   0.5000000000000000    0.0000000000000000    0.5000000000000000 K
   0.5000000000000000    0.5000000000000000    0.0000000000000000 K
   0.0000000000000000    0.0000000000000000    0.0000000000000000 Tl
