K3 Tl1
1.0
      4.7251360000       0.0000000000       0.0000000000
     -0.0000000000       4.7251360000       0.0000000000
      0.0000000000       0.0000000000       4.7251360000
K Tl
3 1
direct
   0.0000000000000000    0.5000000000000000    0.5000000000000000 K
   0.5000000000000000    0.0000000000000000    0.5000000000000000 K
   0.5000000000000000    0.5000000000000000    0.0000000000000000 K
   0.0000000000000000    0.0000000000000000    0.0000000000000000 Tl
