Li4 S2
1.0
      2.9469839925       0.0000000000       0.0000000000
     -1.4734919887       2.5521630064       0.0000000000
      0.0000000000       0.0000000000       5.3303512500
Li S
4 2
direct
   0.3333333333333333    0.6666666666666666    0.5921250000000000 Li
   0.3333333333333333    0.6666666666666666    0.9078750000000000 Li
   0.6666666666666666    0.3333333333333333    0.4078750000000000 Li
   0.6666666666666666    0.3333333333333333    0.0921250000000000 Li
   0.6666666666666666    0.3333333333333333    0.7500000000000000 S
   0.3333333333333333    0.6666666666666666    0.2500000000000000 S
