K3 Cd1
1.0
      5.0599684000       0.0000000000       0.0000000000
     -0.0000000000       5.0599684000       0.0000000000
      0.0000000000       0.0000000000       5.0599684000
K Cd
3 1
direct
   0.0000000000000000    0.5000000000000000    0.5000000000000000 K
   0.5000000000000000    0.0000000000000000    0.5000000000000000 K
   0.5000000000000000    0.5000000000000000    0.0000000000000000 K
   0.0000000000000000    0.0000000000000000    0.0000000000000000 Cd
