Mg1 S1
1.0
      2.6023874077       0.0000000000       1.5024887239
      0.8674614592       2.4535542205       1.5024887238
      0.0000000000       0.0000000000       3.0049766925
Mg S
1 1
direct
   0.0000000000000000    0.0000000000000000    0.0000000000000000 Mg
   0.2500000000000000    0.2500000000000000    0.2500000000000000 S
