Mg1 S1
1.0
      3.1228648892       0.0000000000       1.8029864687
      1.0409537510       2.9442650645       1.8029864685
      0.0000000000       0.0000000000       3.6059720310
Mg S
1 1
direct
   0.0000000000000000    0.0000000000000000    0.0000000000000000 Mg
   0.2500000000000000    0.2500000000000000    0.2500000000000000 S
