Mg1 S1
1.0
      2.9493723954       0.0000000000       1.7028205538
      0.9831229871       2.7806947832       1.7028205536
      0.0000000000       0.0000000000       3.4056402515
Mg S
1 1
direct
   0.0000000000000000    0.0000000000000000    0.0000000000000000 Mg
   0.2500000000000000    0.2500000000000000    0.2500000000000000 S
