Mg1 S1
1.0
      3.2963573830       0.0000000000       1.9031523837
      1.0987845150       3.1078353459       1.9031523835
      0.0000000000       0.0000000000       3.8063038105
Mg S
1 1
direct
   0.0000000000000000    0.0000000000000000    0.0000000000000000 Mg
   0.2500000000000000    0.2500000000000000    0.2500000000000000 S
