Mg1 S1
1.0
      2.7758799015       0.0000000000       1.6026546389
      0.9252922231       2.6171245018       1.6026546387
      0.0000000000       0.0000000000       3.2053084720
Mg S
1 1
direct
   0.0000000000000000    0.0000000000000000    0.0000000000000000 Mg
   0.2500000000000000    0.2500000000000000    0.2500000000000000 S
