Rb3 Li1
1.0
      5.3832078145       0.0000000000      -4.7216242459
     -1.1049325341       5.2685909377      -4.7216242459
      0.0000000000       0.0000000000       7.1604931320
Rb Li
3 1
direct
   0.7500000000000000    0.2500000000000000    0.5000000000000000 Rb
   0.2500000000000000    0.7500000000000000    0.5000000000000000 Rb
   0.5000000000000000    0.5000000000000000    0.0000000000000000 Rb
   0.0000000000000000    0.0000000000000000    0.0000000000000000 Li
