Rb3 Li1
1.0
      5.6822749153       0.0000000000      -4.9839367040
     -1.1663176749       5.5612904343      -4.9839367040
      0.0000000000       0.0000000000       7.5582983060
Rb Li
3 1
direct
   0.7500000000000000    0.2500000000000000    0.5000000000000000 Rb
   0.2500000000000000    0.7500000000000000    0.5000000000000000 Rb
   0.5000000000000000    0.5000000000000000    0.0000000000000000 Rb
   0.0000000000000000    0.0000000000000000    0.0000000000000000 Li
