Zr1 Cu5
1.0
      3.3426188144       0.0000000000       1.9298636311
      1.1142091555       3.1514504846       1.9298636329
      0.0000000000       0.0000000000       3.8597272640
Zr Cu
1 5
direct
   0.0000000000000000    0.0000000000000000    0.0000000000000000 Zr
   0.2500000000000000    0.2500000000000000    0.2500000000000000 Cu
   0.6241108300000000    0.6241108300000000    0.6241108300000000 Cu
   0.6241108300000000    0.6241108300000000    0.1276685200000000 Cu
   0.1276685200000000    0.6241108300000000    0.6241108300000000 Cu
   0.6241108300000000    0.1276685200000000    0.6241108300000000 Cu
