Zr1 Cu5
1.0
      3.7604461662       0.0000000000       2.1710965849
      1.2534853000       3.5453817951       2.1710965870
      0.0000000000       0.0000000000       4.3421931720
Zr Cu
1 5
direct
   0.0000000000000000    0.0000000000000000    0.0000000000000000 Zr
   0.2500000000000000    0.2500000000000000    0.2500000000000000 Cu
   0.6241108300000000    0.6241108300000000    0.6241108300000000 Cu
   0.6241108300000000    0.6241108300000000    0.1276685200000000 Cu
   0.1276685200000000    0.6241108300000000    0.6241108300000000 Cu
   0.6241108300000000    0.1276685200000000    0.6241108300000000 Cu
