Zr1 Cu5
1.0
      3.5515324903       0.0000000000       2.0504801080
      1.1838472277       3.3484161399       2.0504801099
      0.0000000000       0.0000000000       4.1009602180
Zr Cu
1 5
direct
   0.0000000000000000    0.0000000000000000    0.0000000000000000 Zr
   0.2500000000000000    0.2500000000000000    0.2500000000000000 Cu
   0.6241108300000000    0.6241108300000000    0.6241108300000000 Cu
   0.6241108300000000    0.6241108300000000    0.1276685200000000 Cu
   0.1276685200000000    0.6241108300000000    0.6241108300000000 Cu
   0.6241108300000000    0.1276685200000000    0.6241108300000000 Cu
