Zr1 Cu5
1.0
      3.1337051385       0.0000000000       1.8092471541
      1.0445710833       2.9544848293       1.8092471558
      0.0000000000       0.0000000000       3.6184943100
Zr Cu
1 5
direct
   0.0000000000000000    0.0000000000000000    0.0000000000000000 Zr
   0.2500000000000000    0.2500000000000000    0.2500000000000000 Cu
   0.6241108300000000    0.6241108300000000    0.6241108300000000 Cu
   0.6241108300000000    0.6241108300000000    0.1276685200000000 Cu
   0.1276685200000000    0.6241108300000000    0.6241108300000000 Cu
   0.6241108300000000    0.1276685200000000    0.6241108300000000 Cu
