Zr1 Cu5
1.0
      3.9693598421       0.0000000000       2.2917130619
      1.3231233722       3.7423474504       2.2917130640
      0.0000000000       0.0000000000       4.5834261260
Zr Cu
1 5
direct
   0.0000000000000000    0.0000000000000000    0.0000000000000000 Zr
   0.2500000000000000    0.2500000000000000    0.2500000000000000 Cu
   0.6241108300000000    0.6241108300000000    0.6241108300000000 Cu
   0.6241108300000000    0.6241108300000000    0.1276685200000000 Cu
   0.1276685200000000    0.6241108300000000    0.6241108300000000 Cu
   0.6241108300000000    0.1276685200000000    0.6241108300000000 Cu
