Li2 Pt4
1.0
      3.8400200477       0.0000000000       2.2170359363
      1.2800063892       3.6204049042       2.2170359329
      0.0000000000       0.0000000000       4.4340727190
Li Pt
2 4
direct
   0.8750000000000000    0.8750000000000000    0.8750000000000000 Li
   0.1250000000000000    0.1250000000000000    0.1250000000000000 Li
   0.5000000000000000    0.5000000000000000    0.5000000000000000 Pt
   0.5000000000000000    0.5000000000000000    0.0000000000000000 Pt
   0.0000000000000000    0.5000000000000000    0.5000000000000000 Pt
   0.5000000000000000    0.0000000000000000    0.5000000000000000 Pt
