Li2 Pt4
1.0
      4.0659035799       0.0000000000       2.3474498149
      1.3553008826       3.8333698986       2.3474498113
      0.0000000000       0.0000000000       4.6949005260
Li Pt
2 4
direct
   0.8750000000000000    0.8750000000000000    0.8750000000000000 Li
   0.1250000000000000    0.1250000000000000    0.1250000000000000 Li
   0.5000000000000000    0.5000000000000000    0.5000000000000000 Pt
   0.5000000000000000    0.5000000000000000    0.0000000000000000 Pt
   0.0000000000000000    0.5000000000000000    0.5000000000000000 Pt
   0.5000000000000000    0.0000000000000000    0.5000000000000000 Pt
