K1 Mg3
1.0
      2.7556473000       0.0000000000       0.0000000000
     -0.0000000000       4.4797465000       0.0000000000
      0.0000000000       0.0000000000       6.1867471000
K Mg
1 3
direct
   0.5000000000000000    0.0000000000000000    0.1401370000000000 K
   0.0000000000000000    0.0000000000000000    0.6488490000000000 Mg
   0.0000000000000000    0.5000000000000000    0.4163870000000000 Mg
   0.5000000000000000    0.5000000000000000    0.7946270000000000 Mg
