V3 Cu1
1.0
      3.2677643299       0.0000000000       1.8866446155
      1.0892547766       3.0808777560       1.8866446155
      0.0000000000       0.0000000000       3.7732892310
V Cu
3 1
direct
   0.2500000000000000    0.2500000000000000    0.2500000000000000 V
   0.7500000000000000    0.7500000000000000    0.7500000000000000 V
   0.5000000000000000    0.5000000000000000    0.5000000000000000 V
   0.0000000000000000    0.0000000000000000    0.0000000000000000 Cu
