V3 Cu1
1.0
      2.9046794043       0.0000000000       1.6770174360
      0.9682264681       2.7385580053       1.6770174360
      0.0000000000       0.0000000000       3.3540348720
V Cu
3 1
direct
   0.2500000000000000    0.2500000000000000    0.2500000000000000 V
   0.7500000000000000    0.7500000000000000    0.7500000000000000 V
   0.5000000000000000    0.5000000000000000    0.5000000000000000 V
   0.0000000000000000    0.0000000000000000    0.0000000000000000 Cu
