V3 Cu1
1.0
      3.4493067926       0.0000000000       1.9914582053
      1.1497689309       3.2520376313       1.9914582053
      0.0000000000       0.0000000000       3.9829164105
V Cu
3 1
direct
   0.2500000000000000    0.2500000000000000    0.2500000000000000 V
   0.7500000000000000    0.7500000000000000    0.7500000000000000 V
   0.5000000000000000    0.5000000000000000    0.5000000000000000 V
   0.0000000000000000    0.0000000000000000    0.0000000000000000 Cu
