V3 Cu1
1.0
      2.7231369416       0.0000000000       1.5722038463
      0.9077123139       2.5673981300       1.5722038463
      0.0000000000       0.0000000000       3.1444076925
V Cu
3 1
direct
   0.2500000000000000    0.2500000000000000    0.2500000000000000 V
   0.7500000000000000    0.7500000000000000    0.7500000000000000 V
   0.5000000000000000    0.5000000000000000    0.5000000000000000 V
   0.0000000000000000    0.0000000000000000    0.0000000000000000 Cu
