V3 Cu1
1.0
      3.0862218671       0.0000000000       1.7818310258
      1.0287406224       2.9097178806       1.7818310258
      0.0000000000       0.0000000000       3.5636620515
V Cu
3 1
direct
   0.2500000000000000    0.2500000000000000    0.2500000000000000 V
   0.7500000000000000    0.7500000000000000    0.7500000000000000 V
   0.5000000000000000    0.5000000000000000    0.5000000000000000 V
   0.0000000000000000    0.0000000000000000    0.0000000000000000 Cu
