Li3 Au1
1.0
      2.9333779061       0.0000000000      -2.4282429856
     -0.6490142413       2.8606793694      -2.4282429856
      0.0000000000       0.0000000000       3.8080270400
Li Au
3 1
direct
   0.7500000000000000    0.2500000000000000    0.5000000000000000 Li
   0.2500000000000000    0.7500000000000000    0.5000000000000000 Li
   0.5000000000000000    0.5000000000000000    0.0000000000000000 Li
   0.0000000000000000    0.0000000000000000    0.0000000000000000 Au
