Li3 Au1
1.0
      2.7500417870       0.0000000000      -2.2764777990
     -0.6084508512       2.6818869088      -2.2764777990
      0.0000000000       0.0000000000       3.5700253500
Li Au
3 1
direct
   0.7500000000000000    0.2500000000000000    0.5000000000000000 Li
   0.2500000000000000    0.7500000000000000    0.5000000000000000 Li
   0.5000000000000000    0.5000000000000000    0.0000000000000000 Li
   0.0000000000000000    0.0000000000000000    0.0000000000000000 Au
