Li3 Au1
1.0
      3.4833862635       0.0000000000      -2.8835385454
     -0.7707044115       3.3970567512      -2.8835385454
      0.0000000000       0.0000000000       4.5220321100
Li Au
3 1
direct
   0.7500000000000000    0.2500000000000000    0.5000000000000000 Li
   0.2500000000000000    0.7500000000000000    0.5000000000000000 Li
   0.5000000000000000    0.5000000000000000    0.0000000000000000 Li
   0.0000000000000000    0.0000000000000000    0.0000000000000000 Au
