Cu2 Te2
1.0
      2.7256762500       0.0000000000       0.0000000000
     -0.0000000000       5.2356052500       0.0000000000
      0.0000000000       0.0000000000      10.8554407500
Cu Te
2 2
direct
   0.5000000000000000    0.5059610000000000    0.0000000000000000 Cu
   0.0000000000000000    0.4940390000000000    0.5000000000000000 Cu
   0.0000000000000000    0.7331330000000000    0.0000000000000000 Te
   0.5000000000000000    0.2668670000000000    0.5000000000000000 Te
