Cu2 Te2
1.0
      3.4525232500       0.0000000000       0.0000000000
     -0.0000000000       6.6317666500       0.0000000000
      0.0000000000       0.0000000000      13.7502249500
Cu Te
2 2
direct
   0.5000000000000000    0.5059610000000000    0.0000000000000000 Cu
   0.0000000000000000    0.4940390000000000    0.5000000000000000 Cu
   0.0000000000000000    0.7331330000000000    0.0000000000000000 Te
   0.5000000000000000    0.2668670000000000    0.5000000000000000 Te
