Zr4 Cu4
1.0
      3.9099903376       0.0000000000       0.5469230641
     -0.9649419005       3.7890515395       0.5469230641
      0.0000000000       0.0000000000       3.9520057950
Zr Cu
4 4
direct
   0.9084364400000000    0.9084364400000000    0.9898552000000000 Zr
   0.4106155700000000    0.4106155700000000    0.0218460200000000 Zr
   0.8232507900000000    0.2668756700000000    0.4098608700000000 Zr
   0.2668756700000000    0.8232507900000000    0.4098608700000000 Zr
   0.7168617100000000    0.7168617100000000    0.5479312500000000 Cu
   0.3020389200000000    0.3020389200000000    0.5648011300000000 Cu
   0.4475488800000000    0.9478510200000000    0.8501553200000000 Cu
   0.9478510200000000    0.4475488800000000    0.8501553200000000 Cu
