K1 S1
1.0
      3.0700104000       0.0000000000       0.0000000000
     -0.0000000000       3.0700104000       0.0000000000
      0.0000000000       0.0000000000       3.0700104000
K S
1 1
direct
   0.0000000000000000    0.0000000000000000    0.0000000000000000 K
   0.5000000000000000    0.5000000000000000    0.5000000000000000 S
