K1 S1
1.0
      3.2618860500       0.0000000000       0.0000000000
     -0.0000000000       3.2618860500       0.0000000000
      0.0000000000       0.0000000000       3.2618860500
K S
1 1
direct
   0.0000000000000000    0.0000000000000000    0.0000000000000000 K
   0.5000000000000000    0.5000000000000000    0.5000000000000000 S
