K1 S1
1.0
      3.6456373500       0.0000000000       0.0000000000
     -0.0000000000       3.6456373500       0.0000000000
      0.0000000000       0.0000000000       3.6456373500
K S
1 1
direct
   0.0000000000000000    0.0000000000000000    0.0000000000000000 K
   0.5000000000000000    0.5000000000000000    0.5000000000000000 S
