Zn2 Pd2
1.0
      2.6792995280       0.0000000000       0.0000000000
     -0.0000000000       3.2708733280       0.0000000000
      0.0000000000       0.0000000000       3.2708733280
Zn Pd
2 2
direct
   0.5000000000000000    0.5000000000000000    0.0000000000000000 Zn
   0.5000000000000000    0.0000000000000000    0.5000000000000000 Zn
   0.0000000000000000    0.5000000000000000    0.5000000000000000 Pd
   0.0000000000000000    0.0000000000000000    0.0000000000000000 Pd
