Li1 Tl3
1.0
      3.9929823635       0.0000000000       0.0000000000
     -0.0000000000       3.9929823635       0.0000000000
      0.0000000000       0.0000000000       3.9935417060
Li Tl
1 3
direct
   0.0000000000000000    0.0000000000000000    0.0000000000000000 Li
   0.5000010000000000    0.0000000000000000    0.5000010000000000 Tl
   0.0000000000000000    0.5000010000000000    0.5000010000000000 Tl
   0.5000010000000000    0.5000010000000000    0.0000000000000000 Tl
