Li1 Tl3
1.0
      3.7581010480       0.0000000000       0.0000000000
     -0.0000000000       3.7581010480       0.0000000000
      0.0000000000       0.0000000000       3.7586274880
Li Tl
1 3
direct
   0.0000000000000000    0.0000000000000000    0.0000000000000000 Li
   0.5000010000000000    0.0000000000000000    0.5000010000000000 Tl
   0.0000000000000000    0.5000010000000000    0.5000010000000000 Tl
   0.5000010000000000    0.5000010000000000    0.0000000000000000 Tl
