Li1 Tl3
1.0
      4.2278636790       0.0000000000       0.0000000000
     -0.0000000000       4.2278636790       0.0000000000
      0.0000000000       0.0000000000       4.2284559240
Li Tl
1 3
direct
   0.0000000000000000    0.0000000000000000    0.0000000000000000 Li
   0.5000010000000000    0.0000000000000000    0.5000010000000000 Tl
   0.0000000000000000    0.5000010000000000    0.5000010000000000 Tl
   0.5000010000000000    0.5000010000000000    0.0000000000000000 Tl
