Cu1 Ni3
1.0
      2.4008002989       0.0000000000      -2.1156022633
     -0.4897483529       2.3503167076      -2.1156022633
      0.0000000000       0.0000000000       3.1999398450
Cu Ni
1 3
direct
   0.0000000000000000    0.0000000000000000    0.0000000000000000 Cu
   0.7500000000000000    0.2500000000000000    0.5000000000000000 Ni
   0.2500000000000000    0.7500000000000000    0.5000000000000000 Ni
   0.5000000000000000    0.5000000000000000    0.0000000000000000 Ni
