Cu1 Ni3
1.0
      2.8809603587       0.0000000000      -2.5387227160
     -0.5876980235       2.8203800491      -2.5387227160
      0.0000000000       0.0000000000       3.8399278140
Cu Ni
1 3
direct
   0.0000000000000000    0.0000000000000000    0.0000000000000000 Cu
   0.7500000000000000    0.2500000000000000    0.5000000000000000 Ni
   0.2500000000000000    0.7500000000000000    0.5000000000000000 Ni
   0.5000000000000000    0.5000000000000000    0.0000000000000000 Ni
