Cu1 Ni3
1.0
      2.5608536521       0.0000000000      -2.2566424142
     -0.5223982431       2.5070044881      -2.2566424142
      0.0000000000       0.0000000000       3.4132691680
Cu Ni
1 3
direct
   0.0000000000000000    0.0000000000000000    0.0000000000000000 Cu
   0.7500000000000000    0.2500000000000000    0.5000000000000000 Ni
   0.2500000000000000    0.7500000000000000    0.5000000000000000 Ni
   0.5000000000000000    0.5000000000000000    0.0000000000000000 Ni
