Cu1 Ni3
1.0
      2.7209070054       0.0000000000      -2.3976825651
     -0.5550481333       2.6636922686      -2.3976825651
      0.0000000000       0.0000000000       3.6265984910
Cu Ni
1 3
direct
   0.0000000000000000    0.0000000000000000    0.0000000000000000 Cu
   0.7500000000000000    0.2500000000000000    0.5000000000000000 Ni
   0.2500000000000000    0.7500000000000000    0.5000000000000000 Ni
   0.5000000000000000    0.5000000000000000    0.0000000000000000 Ni
