Cu1 Ni3
1.0
      3.0410137119       0.0000000000      -2.6797628669
     -0.6203479137       2.9770678296      -2.6797628669
      0.0000000000       0.0000000000       4.0532571370
Cu Ni
1 3
direct
   0.0000000000000000    0.0000000000000000    0.0000000000000000 Cu
   0.7500000000000000    0.2500000000000000    0.5000000000000000 Ni
   0.2500000000000000    0.7500000000000000    0.5000000000000000 Ni
   0.5000000000000000    0.5000000000000000    0.0000000000000000 Ni
