Y3 Zn11
1.0
      3.5464033131       0.0000000000       0.9875852189
      1.1380801062       6.1712869360       2.7745043114
      0.0000000000       0.0000000000       6.8613324470
Y Zn
3 11
direct
   0.0000000000000000    0.0000000000000000    0.0000000000000000 Y
   0.2944442300000000    0.7055557700000000    0.7055557700000000 Y
   0.7055557700000000    0.2944442300000000    0.2944442300000000 Y
   0.0000000000000000    0.5000000000000000    0.5000000000000000 Zn
   0.5000000000000000    0.3140734200000000    0.6859265800000000 Zn
   0.5000000000000000    0.6859265800000000    0.3140734200000000 Zn
   0.3417696400000000    0.2977858800000000    0.0186748500000000 Zn
   0.6582303600000000    0.7022141200000001    0.9813251500000000 Zn
   0.3417696400000000    0.0186748500000000    0.2977858800000000 Zn
   0.6582303600000000    0.9813251500000000    0.7022141200000001 Zn
   0.1388592200000000    0.5790685100000000    0.1432140600000000 Zn
   0.8611407800000001    0.4209314900000000    0.8567859400000000 Zn
   0.1388592200000000    0.1432140600000000    0.5790685100000000 Zn
   0.8611407800000001    0.8567859400000000    0.4209314900000000 Zn
