Cu3 Sb1
1.0
      3.7024701500       0.0000000000       0.0000000000
     -0.0000000000       3.7024701500       0.0000000000
      0.0000000000       0.0000000000       3.7024701500
Cu Sb
3 1
direct
   0.5000000000000000    0.5000000000000000    0.0000000000000000 Cu
   0.5000000000000000    0.0000000000000000    0.5000000000000000 Cu
   0.0000000000000000    0.5000000000000000    0.5000000000000000 Cu
   0.0000000000000000    0.0000000000000000    0.0000000000000000 Sb
