Cu3 Sb1
1.0
      3.5076033000       0.0000000000       0.0000000000
     -0.0000000000       3.5076033000       0.0000000000
      0.0000000000       0.0000000000       3.5076033000
Cu Sb
3 1
direct
   0.5000000000000000    0.5000000000000000    0.0000000000000000 Cu
   0.5000000000000000    0.0000000000000000    0.5000000000000000 Cu
   0.0000000000000000    0.5000000000000000    0.5000000000000000 Cu
   0.0000000000000000    0.0000000000000000    0.0000000000000000 Sb
