Li3 Be1
1.0
      3.1633402507       0.0000000000      -2.9611202300
     -0.5949644086       3.1068857228      -2.9611202300
      0.0000000000       0.0000000000       4.3330075650
Li Be
3 1
direct
   0.7500000000000000    0.2500000000000000    0.5000000000000000 Li
   0.2500000000000000    0.7500000000000000    0.5000000000000000 Li
   0.5000000000000000    0.5000000000000000    0.0000000000000000 Li
   0.0000000000000000    0.0000000000000000    0.0000000000000000 Be
