Li3 Be1
1.0
      2.8118580006       0.0000000000      -2.6321068711
     -0.5288572521       2.7616761980      -2.6321068711
      0.0000000000       0.0000000000       3.8515622800
Li Be
3 1
direct
   0.7500000000000000    0.2500000000000000    0.5000000000000000 Li
   0.2500000000000000    0.7500000000000000    0.5000000000000000 Li
   0.5000000000000000    0.5000000000000000    0.0000000000000000 Li
   0.0000000000000000    0.0000000000000000    0.0000000000000000 Be
