Li2 Se1
1.0
      3.2804054968       0.0000000000       1.8939428981
      1.0934685011       3.0927960035       1.8939429018
      0.0000000000       0.0000000000       3.7878858000
Li Se
2 1
direct
   0.2500000000000000    0.2500000000000000    0.2500000000000000 Li
   0.7500000000000000    0.7500000000000000    0.7500000000000000 Li
   0.0000000000000000    0.0000000000000000    0.0000000000000000 Se
