Li2 Se1
1.0
      2.9159159971       0.0000000000       1.6835047983
      0.9719720009       2.7491520031       1.6835048016
      0.0000000000       0.0000000000       3.3670096000
Li Se
2 1
direct
   0.2500000000000000    0.2500000000000000    0.2500000000000000 Li
   0.7500000000000000    0.7500000000000000    0.7500000000000000 Li
   0.0000000000000000    0.0000000000000000    0.0000000000000000 Se
