Li1 Mg3
1.0
      3.4942562097       0.0000000000      -2.8739050141
     -0.7794948527       3.4062023184      -2.8739050141
      0.0000000000       0.0000000000       4.5242851910
Li Mg
1 3
direct
   0.0000000000000000    0.0000000000000000    0.0000000000000000 Li
   0.5000000000000000    0.5000000000000000    0.0000000000000000 Mg
   0.2500000000000000    0.7500000000000000    0.5000000000000000 Mg
   0.7500000000000000    0.2500000000000000    0.5000000000000000 Mg
