Li1 Mg3
1.0
      3.0831672439       0.0000000000      -2.5357985419
     -0.6877895759       3.0054726339      -2.5357985419
      0.0000000000       0.0000000000       3.9920163450
Li Mg
1 3
direct
   0.0000000000000000    0.0000000000000000    0.0000000000000000 Li
   0.5000000000000000    0.5000000000000000    0.0000000000000000 Mg
   0.2500000000000000    0.7500000000000000    0.5000000000000000 Mg
   0.7500000000000000    0.2500000000000000    0.5000000000000000 Mg
