Li1 Mg3
1.0
      3.2887117268       0.0000000000      -2.7048517780
     -0.7336422143       3.2058374761      -2.7048517780
      0.0000000000       0.0000000000       4.2581507680
Li Mg
1 3
direct
   0.0000000000000000    0.0000000000000000    0.0000000000000000 Li
   0.5000000000000000    0.5000000000000000    0.0000000000000000 Mg
   0.2500000000000000    0.7500000000000000    0.5000000000000000 Mg
   0.7500000000000000    0.2500000000000000    0.5000000000000000 Mg
