Li1 Pu3
1.0
      3.4557105482       0.0000000000       1.9951554153
      1.1519035161       3.2580751499       1.9951554153
      0.0000000000       0.0000000000       3.9903108305
Li Pu
1 3
direct
   0.7499990000000000    0.7499990000000000    0.7499990000000000 Li
   0.0000000000000000    0.0000000000000000    0.0000000000000000 Pu
   0.4999990000000000    0.4999990000000000    0.4999990000000000 Pu
   0.2500000000000000    0.2500000000000000    0.2500000000000000 Pu
