Li1 Pu3
1.0
      3.2524334571       0.0000000000       1.8777933320
      1.0841444857       3.0664236705       1.8777933320
      0.0000000000       0.0000000000       3.7555866640
Li Pu
1 3
direct
   0.7499990000000000    0.7499990000000000    0.7499990000000000 Li
   0.0000000000000000    0.0000000000000000    0.0000000000000000 Pu
   0.4999990000000000    0.4999990000000000    0.4999990000000000 Pu
   0.2500000000000000    0.2500000000000000    0.2500000000000000 Pu
