Li1 Pu3
1.0
      3.6589876393       0.0000000000       2.1125174985
      1.2196625464       3.4497266294       2.1125174985
      0.0000000000       0.0000000000       4.2250349970
Li Pu
1 3
direct
   0.7499990000000000    0.7499990000000000    0.7499990000000000 Li
   0.0000000000000000    0.0000000000000000    0.0000000000000000 Pu
   0.4999990000000000    0.4999990000000000    0.4999990000000000 Pu
   0.2500000000000000    0.2500000000000000    0.2500000000000000 Pu
