Li1 Pu3
1.0
      3.0491563661       0.0000000000       1.7604312488
      1.0163854554       2.8747721911       1.7604312488
      0.0000000000       0.0000000000       3.5208624975
Li Pu
1 3
direct
   0.7499990000000000    0.7499990000000000    0.7499990000000000 Li
   0.0000000000000000    0.0000000000000000    0.0000000000000000 Pu
   0.4999990000000000    0.4999990000000000    0.4999990000000000 Pu
   0.2500000000000000    0.2500000000000000    0.2500000000000000 Pu
