Li1 Mg5
1.0
      2.3796551475       0.0000000000       0.0000000000
     -1.1898339873       2.0608381071       0.0000000000
      0.0000000000       0.0000000000      11.3390453850
Li Mg
1 5
direct
   0.6666666666666666    0.3333333333333333    0.0000000000000000 Li
   0.0000000000000000    0.0000000000000000    0.8363369800000000 Mg
   0.6666666666666666    0.3333333333333333    0.6678038200000000 Mg
   0.0000000000000000    0.0000000000000000    0.5000000000000000 Mg
   0.6666666666666666    0.3333333333333333    0.3321961800000000 Mg
   0.0000000000000000    0.0000000000000000    0.1636630200000000 Mg
