Li1 B11
1.0
      3.8375576736       0.0000000000       2.6073719737
      1.3807204679       3.5805669785       2.6073719737
      0.0000000000       0.0000000000       4.6395296640
Li B
1 11
direct
   0.4633700000000000    0.4633700000000000    0.4633700000000000 Li
   0.3749440000000000    0.3749440000000000    0.0158900000000000 B
   0.0158900000000000    0.3749440000000000    0.3749440000000000 B
   0.3749440000000000    0.0158900000000000    0.3749440000000000 B
   0.4101800000000000    0.0139310000000000    0.0139310000000000 B
   0.0139310000000000    0.4101800000000000    0.0139310000000000 B
   0.0139310000000000    0.0139310000000000    0.4101800000000000 B
   0.0319960000000000    0.0319960000000000    0.0319960000000000 B
   0.7779590000000000    0.7779590000000000    0.7779590000000000 B
   0.4137410000000000    0.7946720000000000    0.7946720000000000 B
   0.7946720000000000    0.4137410000000000    0.7946720000000000 B
   0.7946720000000000    0.7946720000000000    0.4137410000000000 B
