Li1 B11
1.0
      4.0507553221       0.0000000000       2.7522259722
      1.4574271606       3.7794873662       2.7522259722
      0.0000000000       0.0000000000       4.8972813120
Li B
1 11
direct
   0.4633700000000000    0.4633700000000000    0.4633700000000000 Li
   0.3749440000000000    0.3749440000000000    0.0158900000000000 B
   0.0158900000000000    0.3749440000000000    0.3749440000000000 B
   0.3749440000000000    0.0158900000000000    0.3749440000000000 B
   0.4101800000000000    0.0139310000000000    0.0139310000000000 B
   0.0139310000000000    0.4101800000000000    0.0139310000000000 B
   0.0139310000000000    0.0139310000000000    0.4101800000000000 B
   0.0319960000000000    0.0319960000000000    0.0319960000000000 B
   0.7779590000000000    0.7779590000000000    0.7779590000000000 B
   0.4137410000000000    0.7946720000000000    0.7946720000000000 B
   0.7946720000000000    0.4137410000000000    0.7946720000000000 B
   0.7946720000000000    0.7946720000000000    0.4137410000000000 B
