Li1 Np3
1.0
      3.6865965755       0.0000000000      -2.1196514636
     -1.2339628790       3.4739501902      -2.1196514636
      0.0000000000       0.0000000000       4.2525188580
Li Np
1 3
direct
   0.0000000000000000    0.0000000000000000    0.0000000000000000 Li
   0.7499990000000000    0.2499990000000000    0.5000000000000000 Np
   0.2499990000000000    0.7499990000000000    0.5000000000000000 Np
   0.5000000000000000    0.5000000000000000    0.0000000000000000 Np
