Li1 Np3
1.0
      3.1045023794       0.0000000000      -1.7849696535
     -1.0391266350       2.9254317391      -1.7849696535
      0.0000000000       0.0000000000       3.5810685120
Li Np
1 3
direct
   0.0000000000000000    0.0000000000000000    0.0000000000000000 Li
   0.7499990000000000    0.2499990000000000    0.5000000000000000 Np
   0.2499990000000000    0.7499990000000000    0.5000000000000000 Np
   0.5000000000000000    0.5000000000000000    0.0000000000000000 Np
