Li1 Np3
1.0
      3.4925651768       0.0000000000      -2.0080908602
     -1.1690174643       3.2911107065      -2.0080908602
      0.0000000000       0.0000000000       4.0287020760
Li Np
1 3
direct
   0.0000000000000000    0.0000000000000000    0.0000000000000000 Li
   0.7499990000000000    0.2499990000000000    0.5000000000000000 Np
   0.2499990000000000    0.7499990000000000    0.5000000000000000 Np
   0.5000000000000000    0.5000000000000000    0.0000000000000000 Np
