K3 Hg1
1.0
      5.3255939195       0.0000000000       3.0747330830
      1.7751979732       5.0210180991       3.0747330830
      0.0000000000       0.0000000000       6.1494661660
K Hg
3 1
direct
   0.0000000000000000    0.0000000000000000    0.0000000000000000 K
   0.4999990000000000    0.4999990000000000    0.4999990000000000 K
   0.2500000000000000    0.2500000000000000    0.2500000000000000 K
   0.7500000000000000    0.7500000000000000    0.7500000000000000 Hg
