K3 Hg1
1.0
      4.2044162522       0.0000000000       2.4274208550
      1.4014720841       3.9639616572       2.4274208550
      0.0000000000       0.0000000000       4.8548417100
K Hg
3 1
direct
   0.0000000000000000    0.0000000000000000    0.0000000000000000 K
   0.4999990000000000    0.4999990000000000    0.4999990000000000 K
   0.2500000000000000    0.2500000000000000    0.2500000000000000 K
   0.7500000000000000    0.7500000000000000    0.7500000000000000 Hg
