K3 Hg1
1.0
      4.7650050858       0.0000000000       2.7510769690
      1.5883350286       4.4924898781       2.7510769690
      0.0000000000       0.0000000000       5.5021539380
K Hg
3 1
direct
   0.0000000000000000    0.0000000000000000    0.0000000000000000 K
   0.4999990000000000    0.4999990000000000    0.4999990000000000 K
   0.2500000000000000    0.2500000000000000    0.2500000000000000 K
   0.7500000000000000    0.7500000000000000    0.7500000000000000 Hg
