K3 Hg1
1.0
      5.0452995027       0.0000000000       2.9129050260
      1.6817665009       4.7567539886       2.9129050260
      0.0000000000       0.0000000000       5.8258100520
K Hg
3 1
direct
   0.0000000000000000    0.0000000000000000    0.0000000000000000 K
   0.4999990000000000    0.4999990000000000    0.4999990000000000 K
   0.2500000000000000    0.2500000000000000    0.2500000000000000 K
   0.7500000000000000    0.7500000000000000    0.7500000000000000 Hg
