K3 Hg1
1.0
      4.4847106690       0.0000000000       2.5892489120
      1.4949035563       4.2282257676       2.5892489120
      0.0000000000       0.0000000000       5.1784978240
K Hg
3 1
direct
   0.0000000000000000    0.0000000000000000    0.0000000000000000 K
   0.4999990000000000    0.4999990000000000    0.4999990000000000 K
   0.2500000000000000    0.2500000000000000    0.2500000000000000 K
   0.7500000000000000    0.7500000000000000    0.7500000000000000 Hg
