Li1 Sn3
1.0
      3.7591432765       0.0000000000      -3.5330272135
     -0.7031408294       3.6927971983      -3.5330272135
      0.0000000000       0.0000000000       5.1588215190
Li Sn
1 3
direct
   0.0000000000000000    0.0000000000000000    0.0000000000000000 Li
   0.7500000000000000    0.2500000000000000    0.5000000000000000 Sn
   0.2500000000000000    0.7500000000000000    0.5000000000000000 Sn
   0.5000000000000000    0.5000000000000000    0.0000000000000000 Sn
