Li1 Sn3
1.0
      3.9679845697       0.0000000000      -3.7293065032
     -0.7422042088       3.8979525982      -3.7293065032
      0.0000000000       0.0000000000       5.4454227145
Li Sn
1 3
direct
   0.0000000000000000    0.0000000000000000    0.0000000000000000 Li
   0.7500000000000000    0.2500000000000000    0.5000000000000000 Sn
   0.2500000000000000    0.7500000000000000    0.5000000000000000 Sn
   0.5000000000000000    0.5000000000000000    0.0000000000000000 Sn
