Li1 Sn3
1.0
      3.1326193971       0.0000000000      -2.9441893446
     -0.5859506912       3.0773309986      -2.9441893446
      0.0000000000       0.0000000000       4.2990179325
Li Sn
1 3
direct
   0.0000000000000000    0.0000000000000000    0.0000000000000000 Li
   0.7500000000000000    0.2500000000000000    0.5000000000000000 Sn
   0.2500000000000000    0.7500000000000000    0.5000000000000000 Sn
   0.5000000000000000    0.5000000000000000    0.0000000000000000 Sn
