Li6 Nb2
1.0
      5.1708117240       0.0000000000       0.0000000000
     -2.5854061817       4.4780541266       0.0000000000
      0.0000000000       0.0000000000       4.0669713000
Li Nb
6 2
direct
   0.1658790000000000    0.3317570000000000    0.2500000000000000 Li
   0.6682430000000000    0.8341210000000000    0.2500000000000000 Li
   0.1658790000000000    0.8341210000000000    0.2500000000000000 Li
   0.8341210000000000    0.6682430000000000    0.7500000000000000 Li
   0.3317570000000000    0.1658790000000000    0.7500000000000000 Li
   0.8341210000000000    0.1658790000000000    0.7500000000000000 Li
   0.3333333333333333    0.6666666666666666    0.7500000000000000 Nb
   0.6666666666666666    0.3333333333333333    0.2500000000000000 Nb
