Li6 Nb2
1.0
      4.5962770880       0.0000000000       0.0000000000
     -2.2981388281       3.9804925570       0.0000000000
      0.0000000000       0.0000000000       3.6150856000
Li Nb
6 2
direct
   0.1658790000000000    0.3317570000000000    0.2500000000000000 Li
   0.6682430000000000    0.8341210000000000    0.2500000000000000 Li
   0.1658790000000000    0.8341210000000000    0.2500000000000000 Li
   0.8341210000000000    0.6682430000000000    0.7500000000000000 Li
   0.3317570000000000    0.1658790000000000    0.7500000000000000 Li
   0.8341210000000000    0.1658790000000000    0.7500000000000000 Li
   0.3333333333333333    0.6666666666666666    0.7500000000000000 Nb
   0.6666666666666666    0.3333333333333333    0.2500000000000000 Nb
