Ta3 Cu1
1.0
      3.1331926894       0.0000000000      -2.9656883167
     -0.5803814356       3.0789696034      -2.9656883167
      0.0000000000       0.0000000000       4.3141863220
Ta Cu
3 1
direct
   0.7500000000000000    0.2500000000000000    0.5000000000000000 Ta
   0.2500000000000000    0.7500000000000000    0.5000000000000000 Ta
   0.5000000000000000    0.5000000000000000    0.0000000000000000 Ta
   0.0000000000000000    0.0000000000000000    0.0000000000000000 Cu
