Ta3 Cu1
1.0
      3.3174981418       0.0000000000      -3.1401405706
     -0.6145215200       3.2600854624      -3.1401405706
      0.0000000000       0.0000000000       4.5679619880
Ta Cu
3 1
direct
   0.7500000000000000    0.2500000000000000    0.5000000000000000 Ta
   0.2500000000000000    0.7500000000000000    0.5000000000000000 Ta
   0.5000000000000000    0.5000000000000000    0.0000000000000000 Ta
   0.0000000000000000    0.0000000000000000    0.0000000000000000 Cu
