Ta3 Cu1
1.0
      2.7645817848       0.0000000000      -2.6167838088
     -0.5121012667       2.7167378853      -2.6167838088
      0.0000000000       0.0000000000       3.8066349900
Ta Cu
3 1
direct
   0.7500000000000000    0.2500000000000000    0.5000000000000000 Ta
   0.2500000000000000    0.7500000000000000    0.5000000000000000 Ta
   0.5000000000000000    0.5000000000000000    0.0000000000000000 Ta
   0.0000000000000000    0.0000000000000000    0.0000000000000000 Cu
