Ta3 Cu1
1.0
      2.9488872371       0.0000000000      -2.7912360628
     -0.5462413511       2.8978537443      -2.7912360628
      0.0000000000       0.0000000000       4.0604106560
Ta Cu
3 1
direct
   0.7500000000000000    0.2500000000000000    0.5000000000000000 Ta
   0.2500000000000000    0.7500000000000000    0.5000000000000000 Ta
   0.5000000000000000    0.5000000000000000    0.0000000000000000 Ta
   0.0000000000000000    0.0000000000000000    0.0000000000000000 Cu
