Ta3 Cu1
1.0
      3.5018035941       0.0000000000      -3.3145928245
     -0.6486616045       3.4412013214      -3.3145928245
      0.0000000000       0.0000000000       4.8217376540
Ta Cu
3 1
direct
   0.7500000000000000    0.2500000000000000    0.5000000000000000 Ta
   0.2500000000000000    0.7500000000000000    0.5000000000000000 Ta
   0.5000000000000000    0.5000000000000000    0.0000000000000000 Ta
   0.0000000000000000    0.0000000000000000    0.0000000000000000 Cu
