K3 Cr1
1.0
      5.4005625993       0.0000000000       3.1180162705
      1.8001875331       5.0916992483       3.1180162705
      0.0000000000       0.0000000000       6.2360325410
K Cr
3 1
direct
   0.2500000000000000    0.2500000000000000    0.2500000000000000 K
   0.7500000000000000    0.7500000000000000    0.7500000000000000 K
   0.5000000000000000    0.5000000000000000    0.5000000000000000 K
   0.0000000000000000    0.0000000000000000    0.0000000000000000 Cr
