K3 Cr1
1.0
      5.1163224625       0.0000000000       2.9539101510
      1.7054408208       4.8237150773       2.9539101510
      0.0000000000       0.0000000000       5.9078203020
K Cr
3 1
direct
   0.2500000000000000    0.2500000000000000    0.2500000000000000 K
   0.7500000000000000    0.7500000000000000    0.7500000000000000 K
   0.5000000000000000    0.5000000000000000    0.5000000000000000 K
   0.0000000000000000    0.0000000000000000    0.0000000000000000 Cr
