K3 Cr1
1.0
      4.5478421889       0.0000000000       2.6256979120
      1.5159473963       4.2877467354       2.6256979120
      0.0000000000       0.0000000000       5.2513958240
K Cr
3 1
direct
   0.2500000000000000    0.2500000000000000    0.2500000000000000 K
   0.7500000000000000    0.7500000000000000    0.7500000000000000 K
   0.5000000000000000    0.5000000000000000    0.5000000000000000 K
   0.0000000000000000    0.0000000000000000    0.0000000000000000 Cr
