K3 Cr1
1.0
      4.8320823257       0.0000000000       2.7898040315
      1.6106941086       4.5557309064       2.7898040315
      0.0000000000       0.0000000000       5.5796080630
K Cr
3 1
direct
   0.2500000000000000    0.2500000000000000    0.2500000000000000 K
   0.7500000000000000    0.7500000000000000    0.7500000000000000 K
   0.5000000000000000    0.5000000000000000    0.5000000000000000 K
   0.0000000000000000    0.0000000000000000    0.0000000000000000 Cr
