K3 Cr1
1.0
      4.2636020521       0.0000000000       2.4615917925
      1.4212006840       4.0197625644       2.4615917925
      0.0000000000       0.0000000000       4.9231835850
K Cr
3 1
direct
   0.2500000000000000    0.2500000000000000    0.2500000000000000 K
   0.7500000000000000    0.7500000000000000    0.7500000000000000 K
   0.5000000000000000    0.5000000000000000    0.5000000000000000 K
   0.0000000000000000    0.0000000000000000    0.0000000000000000 Cr
