Li3 Pr1
1.0
      3.8295632526       0.0000000000       2.2109993748
      1.2765210842       3.6105468598       2.2109993748
      0.0000000000       0.0000000000       4.4219987495
Li Pr
3 1
direct
   0.2500000000000000    0.2500000000000000    0.2500000000000000 Li
   0.7500000000000000    0.7500000000000000    0.7500000000000000 Li
   0.5000000000000000    0.5000000000000000    0.5000000000000000 Li
   0.0000000000000000    0.0000000000000000    0.0000000000000000 Pr
