Cu3 O3
1.0
      3.1207027500       0.0000000000       0.0000000000
     -0.0000000000       3.1207027500       0.0000000000
      0.0000000000       0.0000000000       2.9157322500
Cu O
3 3
direct
   0.0000000000000000    0.0000000000000000    0.0000000000000000 Cu
   0.0000000000000000    0.5000000000000000    0.5000000000000000 Cu
   0.5000000000000000    0.0000000000000000    0.5000000000000000 Cu
   0.0000000000000000    0.5000000000000000    0.0000000000000000 O
   0.5000000000000000    0.0000000000000000    0.0000000000000000 O
   0.0000000000000000    0.0000000000000000    0.5000000000000000 O
