V4 Zn5
1.0
      2.9317233597       0.0000000000       0.7527152561
      1.4649877764       5.8945052154       0.3797622701
      0.0000000000       0.0000000000       6.0856893980
V Zn
4 5
direct
   0.3426489700000000    0.6573520300000000    0.6573510299999999 V
   0.0000000000000000    0.3425284300000000    0.6574715700000000 V
   0.0000000000000000    0.6574715700000000    0.3425284300000000 V
   0.6573510299999999    0.3426479700000000    0.3426489700000000 V
   0.0000000000000000    0.0000000000000000    0.0000000000000000 Zn
   0.3304907300000000    0.0000272300000000    0.3389893000000000 Zn
   0.6695092700000000    0.6610107000000000    0.9999727700000000 Zn
   0.3304907300000000    0.3389893000000000    0.0000272300000000 Zn
   0.6695092700000000    0.9999727700000000    0.6610107000000000 Zn
