Na3 Cu1
1.0
      3.4878948773       0.0000000000      -2.6776497573
     -0.8477304780       3.3833066240      -2.6776497573
      0.0000000000       0.0000000000       4.3971830640
Na Cu
3 1
direct
   0.7500000000000000    0.2500000000000000    0.5000000000000000 Na
   0.2500000000000000    0.7500000000000000    0.5000000000000000 Na
   0.5000000000000000    0.5000000000000000    0.0000000000000000 Na
   0.0000000000000000    0.0000000000000000    0.0000000000000000 Cu
