Na3 Cu1
1.0
      3.7058883072       0.0000000000      -2.8450028672
     -0.9007136328       3.5947632880      -2.8450028672
      0.0000000000       0.0000000000       4.6720070055
Na Cu
3 1
direct
   0.7500000000000000    0.2500000000000000    0.5000000000000000 Na
   0.2500000000000000    0.7500000000000000    0.5000000000000000 Na
   0.5000000000000000    0.5000000000000000    0.0000000000000000 Na
   0.0000000000000000    0.0000000000000000    0.0000000000000000 Cu
