Na3 Cu1
1.0
      3.2699014475       0.0000000000      -2.5102966475
     -0.7947473231       3.1718499600      -2.5102966475
      0.0000000000       0.0000000000       4.1223591225
Na Cu
3 1
direct
   0.7500000000000000    0.2500000000000000    0.5000000000000000 Na
   0.2500000000000000    0.7500000000000000    0.5000000000000000 Na
   0.5000000000000000    0.5000000000000000    0.0000000000000000 Na
   0.0000000000000000    0.0000000000000000    0.0000000000000000 Cu
