Na3 Cu1
1.0
      4.1418751668       0.0000000000      -3.1797090868
     -1.0066799426       4.0176766160      -3.1797090868
      0.0000000000       0.0000000000       5.2216548885
Na Cu
3 1
direct
   0.7500000000000000    0.2500000000000000    0.5000000000000000 Na
   0.2500000000000000    0.7500000000000000    0.5000000000000000 Na
   0.5000000000000000    0.5000000000000000    0.0000000000000000 Na
   0.0000000000000000    0.0000000000000000    0.0000000000000000 Cu
