Na3 Cu1
1.0
      3.9238817370       0.0000000000      -3.0123559770
     -0.9536967877       3.8062199520      -3.0123559770
      0.0000000000       0.0000000000       4.9468309470
Na Cu
3 1
direct
   0.7500000000000000    0.2500000000000000    0.5000000000000000 Na
   0.2500000000000000    0.7500000000000000    0.5000000000000000 Na
   0.5000000000000000    0.5000000000000000    0.0000000000000000 Na
   0.0000000000000000    0.0000000000000000    0.0000000000000000 Cu
