Mg1 Cu5
1.0
      3.2435122560       0.0000000000       1.6488737047
     -1.2026446420       3.0123126123      -1.6488735665
      0.0000000000       0.0000000000       4.0146055120
Mg Cu
1 5
direct
   0.8333320000000000    0.4999990000000000    0.5000000000000000 Mg
   0.6566880000000000    0.3233540000000000    0.0000000000000000 Cu
   0.3333333333333333    0.6766450000000001    0.0000000000000000 Cu
   0.0099780000000000    0.9999990000000000    0.0000000000000000 Cu
   0.5019370000000000    0.8313950000000000    0.4941880000000000 Cu
   0.1647270000000000    0.1686040000000000    0.5058140000000000 Cu
