K1 Ca3
1.0
      4.6987663240       0.0000000000      -4.3153636360
     -0.9069504238       4.6104062615      -4.3153636360
      0.0000000000       0.0000000000       6.3797153760
K Ca
1 3
direct
   0.0000000000000000    0.0000000000000000    0.0000000000000000 K
   0.7500000000000000    0.2500000000000000    0.5000000000000000 Ca
   0.2500000000000000    0.7500000000000000    0.5000000000000000 Ca
   0.5000000000000000    0.5000000000000000    0.0000000000000000 Ca
