K1 Ca3
1.0
      3.9156386033       0.0000000000      -3.5961363633
     -0.7557920199       3.8420052179      -3.5961363633
      0.0000000000       0.0000000000       5.3164294800
K Ca
1 3
direct
   0.0000000000000000    0.0000000000000000    0.0000000000000000 K
   0.7500000000000000    0.2500000000000000    0.5000000000000000 Ca
   0.2500000000000000    0.7500000000000000    0.5000000000000000 Ca
   0.5000000000000000    0.5000000000000000    0.0000000000000000 Ca
