K1 Ca3
1.0
      4.1766811769       0.0000000000      -3.8358787876
     -0.8061781545       4.0981388991      -3.8358787876
      0.0000000000       0.0000000000       5.6708581120
K Ca
1 3
direct
   0.0000000000000000    0.0000000000000000    0.0000000000000000 K
   0.7500000000000000    0.2500000000000000    0.5000000000000000 Ca
   0.2500000000000000    0.7500000000000000    0.5000000000000000 Ca
   0.5000000000000000    0.5000000000000000    0.0000000000000000 Ca
