K1 Ca3
1.0
      4.9598088976       0.0000000000      -4.5551060602
     -0.9573365585       4.8665399427      -4.5551060602
      0.0000000000       0.0000000000       6.7341440080
K Ca
1 3
direct
   0.0000000000000000    0.0000000000000000    0.0000000000000000 K
   0.7500000000000000    0.2500000000000000    0.5000000000000000 Ca
   0.2500000000000000    0.7500000000000000    0.5000000000000000 Ca
   0.5000000000000000    0.5000000000000000    0.0000000000000000 Ca
