Zn24 Au8
1.0
      5.8957827150       0.0000000000       0.0000000000
     -0.0000000000       5.8957827150       0.0000000000
      0.0000000000       0.0000000000       5.8957827150
Zn Au
24 8
direct
   0.5000000000000000    0.1989299000000000    0.3369249200000000 Zn
   0.5000000000000000    0.8010691000000000    0.6630760800000000 Zn
   0.1989299000000000    0.3369249200000000    0.5000000000000000 Zn
   0.8010691000000000    0.3369249200000000    0.5000000000000000 Zn
   0.3369249200000000    0.5000000000000000    0.1989299000000000 Zn
   0.6630760800000000    0.5000000000000000    0.1989299000000000 Zn
   0.0000000000000000    0.8369239200000000    0.3010701000000000 Zn
   0.0000000000000000    0.1630750800000000    0.6989309000000000 Zn
   0.0000000000000000    0.1630750800000000    0.3010701000000000 Zn
   0.5000000000000000    0.1989299000000000    0.6630760800000000 Zn
   0.5000000000000000    0.8010691000000000    0.3369249200000000 Zn
   0.8010691000000000    0.6630760800000000    0.5000000000000000 Zn
   0.1989299000000000    0.6630760800000000    0.5000000000000000 Zn
   0.3369249200000000    0.5000000000000000    0.8010691000000000 Zn
   0.6630760800000000    0.5000000000000000    0.8010691000000000 Zn
   0.3010701000000000    0.0000000000000000    0.1630750800000000 Zn
   0.1630750800000000    0.3010701000000000    0.0000000000000000 Zn
   0.8369239200000000    0.6989309000000000    0.0000000000000000 Zn
   0.3010701000000000    0.0000000000000000    0.8369239200000000 Zn
   0.8369239200000000    0.3010701000000000    0.0000000000000000 Zn
   0.6989309000000000    0.0000000000000000    0.1630750800000000 Zn
   0.6989309000000000    0.0000000000000000    0.8369239200000000 Zn
   0.1630750800000000    0.6989309000000000    0.0000000000000000 Zn
   0.0000000000000000    0.8369239200000000    0.6989309000000000 Zn
   0.5000000000000000    0.2500000000000000    0.0000000000000000 Au
   0.5000000000000000    0.7500000000000000    0.0000000000000000 Au
   0.0000000000000000    0.5000000000000000    0.7500000000000000 Au
   0.0000000000000000    0.5000000000000000    0.2500000000000000 Au
   0.7500000000000000    0.0000000000000000    0.5000000000000000 Au
   0.2500000000000000    0.0000000000000000    0.5000000000000000 Au
   0.5000000000000000    0.5000000000000000    0.5000000000000000 Au
   0.0000000000000000    0.0000000000000000    0.0000000000000000 Au
