Ba2 Zn1
1.0
      3.0108473306       0.0000000000      -0.7916121447
     -0.2081307083       3.0036449951      -0.7916121447
      0.0000000000       0.0000000000       6.1215941400
Ba Zn
2 1
direct
   0.6259783600000000    0.6259783600000000    0.2519587200000000 Ba
   0.3740216400000000    0.3740216400000000    0.7480412800000000 Ba
   0.0000000000000000    0.0000000000000000    0.0000000000000000 Zn
