Ba2 Zn1
1.0
      3.6130167967       0.0000000000      -0.9499345736
     -0.2497568500       3.6043739941      -0.9499345736
      0.0000000000       0.0000000000       7.3459129680
Ba Zn
2 1
direct
   0.6259783600000000    0.6259783600000000    0.2519587200000000 Ba
   0.3740216400000000    0.3740216400000000    0.7480412800000000 Ba
   0.0000000000000000    0.0000000000000000    0.0000000000000000 Zn
