Cu1 Pd3
1.0
      3.3161541623       0.0000000000      -3.0608175237
     -0.6357639415       3.2546401704      -3.0608175237
      0.0000000000       0.0000000000       4.5128131295
Cu Pd
1 3
direct
   0.0000000000000000    0.0000000000000000    0.0000000000000000 Cu
   0.7500019999999999    0.2500010000000000    0.5000019999999999 Pd
   0.2500010000000000    0.7500019999999999    0.5000019999999999 Pd
   0.5000000000000000    0.5000000000000000    0.0000000000000000 Pd
