Cu1 Pd3
1.0
      2.7925508735       0.0000000000      -2.5775305463
     -0.5353801613       2.7407496172      -2.5775305463
      0.0000000000       0.0000000000       3.8002636880
Cu Pd
1 3
direct
   0.0000000000000000    0.0000000000000000    0.0000000000000000 Cu
   0.7500019999999999    0.2500010000000000    0.5000019999999999 Pd
   0.2500010000000000    0.7500019999999999    0.5000019999999999 Pd
   0.5000000000000000    0.5000000000000000    0.0000000000000000 Pd
