Cu1 Pd3
1.0
      3.1416197327       0.0000000000      -2.8997218646
     -0.6023026814       3.0833433194      -2.8997218646
      0.0000000000       0.0000000000       4.2752966490
Cu Pd
1 3
direct
   0.0000000000000000    0.0000000000000000    0.0000000000000000 Cu
   0.7500019999999999    0.2500010000000000    0.5000019999999999 Pd
   0.2500010000000000    0.7500019999999999    0.5000019999999999 Pd
   0.5000000000000000    0.5000000000000000    0.0000000000000000 Pd
