Cu1 Pd3
1.0
      2.6180164439       0.0000000000      -2.4164348871
     -0.5019189012       2.5694527661      -2.4164348871
      0.0000000000       0.0000000000       3.5627472075
Cu Pd
1 3
direct
   0.0000000000000000    0.0000000000000000    0.0000000000000000 Cu
   0.7500019999999999    0.2500010000000000    0.5000019999999999 Pd
   0.2500010000000000    0.7500019999999999    0.5000019999999999 Pd
   0.5000000000000000    0.5000000000000000    0.0000000000000000 Pd
