Cu1 Pd3
1.0
      2.9670853031       0.0000000000      -2.7386262054
     -0.5688414213       2.9120464683      -2.7386262054
      0.0000000000       0.0000000000       4.0377801685
Cu Pd
1 3
direct
   0.0000000000000000    0.0000000000000000    0.0000000000000000 Cu
   0.7500019999999999    0.2500010000000000    0.5000019999999999 Pd
   0.2500010000000000    0.7500019999999999    0.5000019999999999 Pd
   0.5000000000000000    0.5000000000000000    0.0000000000000000 Pd
