Li1 Mg3
1.0
      3.0113627820       0.0000000000       0.0000000000
     -0.0000000000       4.7973687670       0.0000000000
      0.0000000000       0.0000000000       5.1392425310
Li Mg
1 3
direct
   0.5000000000000000    0.0000000000000000    0.1677946900000000 Li
   0.0000000000000000    0.0000000000000000    0.6683597500000000 Mg
   0.0000000000000000    0.5000000000000000    0.3296037600000000 Mg
   0.5000000000000000    0.5000000000000000    0.8342408100000001 Mg
