K3 Er1
1.0
      5.3565071830       0.0000000000       3.0925808640
      1.7855023943       5.0501634034       3.0925808640
      0.0000000000       0.0000000000       6.1851617280
K Er
3 1
direct
   0.2500000000000000    0.2500000000000000    0.2500000000000000 K
   0.7500000000000000    0.7500000000000000    0.7500000000000000 K
   0.5000000000000000    0.5000000000000000    0.5000000000000000 K
   0.0000000000000000    0.0000000000000000    0.0000000000000000 Er
