K3 Er1
1.0
      4.7613397182       0.0000000000       2.7489607680
      1.5871132394       4.4890341364       2.7489607680
      0.0000000000       0.0000000000       5.4979215360
K Er
3 1
direct
   0.2500000000000000    0.2500000000000000    0.2500000000000000 K
   0.7500000000000000    0.7500000000000000    0.7500000000000000 K
   0.5000000000000000    0.5000000000000000    0.5000000000000000 K
   0.0000000000000000    0.0000000000000000    0.0000000000000000 Er
