K3 Er1
1.0
      5.6540909154       0.0000000000       3.2643909120
      1.8846969718       5.3307280369       3.2643909120
      0.0000000000       0.0000000000       6.5287818240
K Er
3 1
direct
   0.2500000000000000    0.2500000000000000    0.2500000000000000 K
   0.7500000000000000    0.7500000000000000    0.7500000000000000 K
   0.5000000000000000    0.5000000000000000    0.5000000000000000 K
   0.0000000000000000    0.0000000000000000    0.0000000000000000 Er
