K3 Er1
1.0
      5.0589234506       0.0000000000       2.9207708160
      1.6863078169       4.7695987699       2.9207708160
      0.0000000000       0.0000000000       5.8415416320
K Er
3 1
direct
   0.2500000000000000    0.2500000000000000    0.2500000000000000 K
   0.7500000000000000    0.7500000000000000    0.7500000000000000 K
   0.5000000000000000    0.5000000000000000    0.5000000000000000 K
   0.0000000000000000    0.0000000000000000    0.0000000000000000 Er
