K3 Er1
1.0
      4.4637559858       0.0000000000       2.5771507200
      1.4879186619       4.2084695028       2.5771507200
      0.0000000000       0.0000000000       5.1543014400
K Er
3 1
direct
   0.2500000000000000    0.2500000000000000    0.2500000000000000 K
   0.7500000000000000    0.7500000000000000    0.7500000000000000 K
   0.5000000000000000    0.5000000000000000    0.5000000000000000 K
   0.0000000000000000    0.0000000000000000    0.0000000000000000 Er
