Li1 I1
1.0
      3.1066278864       0.0000000000       1.7936127696
      1.0355432139       2.9289562099       1.7936127625
      0.0000000000       0.0000000000       3.5872246465
Li I
1 1
direct
   0.0000000000000000    0.0000000000000000    0.0000000000000000 Li
   0.5000000000000000    0.5000000000000000    0.5000000000000000 I
