Li3 Ca1
1.0
      3.2135551965       0.0000000000      -3.0408344879
     -0.5955151153       3.1578946702      -3.0408344879
      0.0000000000       0.0000000000       4.4242074300
Li Ca
3 1
direct
   0.7500019999999999    0.2500000000000000    0.5000010000000000 Li
   0.2500000000000000    0.7500019999999999    0.5000010000000000 Li
   0.4999990000000000    0.4999990000000000    0.0000000000000000 Li
   0.0000000000000000    0.0000000000000000    0.0000000000000000 Ca
