Li3 Ca1
1.0
      3.6420292227       0.0000000000      -3.4462790863
     -0.6749171307       3.5789472929      -3.4462790863
      0.0000000000       0.0000000000       5.0141017540
Li Ca
3 1
direct
   0.7500019999999999    0.2500000000000000    0.5000010000000000 Li
   0.2500000000000000    0.7500019999999999    0.5000010000000000 Li
   0.4999990000000000    0.4999990000000000    0.0000000000000000 Li
   0.0000000000000000    0.0000000000000000    0.0000000000000000 Ca
