Li3 Ca1
1.0
      3.4277922096       0.0000000000      -3.2435567871
     -0.6352161230       3.3684209816      -3.2435567871
      0.0000000000       0.0000000000       4.7191545920
Li Ca
3 1
direct
   0.7500019999999999    0.2500000000000000    0.5000010000000000 Li
   0.2500000000000000    0.7500019999999999    0.5000010000000000 Li
   0.4999990000000000    0.4999990000000000    0.0000000000000000 Li
   0.0000000000000000    0.0000000000000000    0.0000000000000000 Ca
