Cu2 S4
1.0
      2.8738512560       0.0000000000       0.0000000000
     -0.0000014292       3.7579414714      -0.0000678565
      0.0000000000       0.0000000000       4.6412258320
Cu S
2 4
direct
   0.5000000000000000    0.5000000000000000    0.5000000000000000 Cu
   0.0000000000000000    0.0000000000000000    0.0000000000000000 Cu
   0.4999999700000000    0.3283489900000000    0.8956564200000000 S
   0.0000000300000000    0.1716490100000000    0.3956584300000000 S
   0.9999999700000000    0.8283509900000000    0.6043415700000000 S
   0.5000000300000000    0.6716510100000000    0.1043435800000000 S
