Li2 F2
1.0
      2.4487518160       0.0000000000       0.0000000000
     -1.2243758399       2.1206813195       0.0000000000
      0.0000000000       0.0000000000       3.8458596560
Li F
2 2
direct
   0.6666666666666666    0.3333333333333333    0.8811542600000000 Li
   0.3333333333333333    0.6666666666666666    0.3811542600000000 Li
   0.6666666666666666    0.3333333333333333    0.4938437400000000 F
   0.3333333333333333    0.6666666666666666    0.9938437400000000 F
