Li2 Mg4
1.0
      4.5836680738       0.0000000000       3.2946374278
      1.6893003662       4.2610183388       3.2946374278
      0.0000000000       0.0000000000       5.6448781690
Li Mg
2 4
direct
   0.1662327600000000    0.1662327600000000    0.1662327600000000 Li
   0.8337672400000000    0.8337672400000000    0.8337672400000000 Li
   0.3304147000000000    0.0000000000000000    0.6695853000000000 Mg
   0.6695853000000000    0.3304147000000000    0.0000000000000000 Mg
   0.5000000000000000    0.5000000000000000    0.5000000000000000 Mg
   0.0000000000000000    0.6695853000000000    0.3304147000000000 Mg
