K6 Pm2
1.0
      6.4943773725       0.0000000000       0.0000000000
     -3.2471885596       5.6242958595       0.0000000000
      0.0000000000       0.0000000000       5.3338755000
K Pm
6 2
direct
   0.1706920000000000    0.3413840000000000    0.2500000000000000 K
   0.6586160000000000    0.8293080000000000    0.2500000000000000 K
   0.1706920000000000    0.8293080000000000    0.2500000000000000 K
   0.8293080000000000    0.6586160000000000    0.7500000000000000 K
   0.3413840000000000    0.1706920000000000    0.7500000000000000 K
   0.8293080000000000    0.1706920000000000    0.7500000000000000 K
   0.3333333333333333    0.6666666666666666    0.7500000000000000 Pm
   0.6666666666666666    0.3333333333333333    0.2500000000000000 Pm
