Mg1 O1
1.0
      1.9960275000       0.0000000000       0.0000000000
     -0.0000000000       1.9960275000       0.0000000000
      0.0000000000       0.0000000000       1.9960275000
Mg O
1 1
direct
   0.0000000000000000    0.0000000000000000    0.0000000000000000 Mg
   0.5000000000000000    0.5000000000000000    0.5000000000000000 O
