Al1 Cu3
1.0
      2.6528079821       0.0000000000       1.5315992773
      0.8842698297       2.5010907600       1.5315992775
      0.0000000000       0.0000000000       3.0631978050
Al Cu
1 3
direct
   0.0000000000000000    0.0000000000000000    0.0000000000000000 Al
   0.5000000000000000    0.5000000000000000    0.5000000000000000 Cu
   0.2500000000000000    0.2500000000000000    0.2500000000000000 Cu
   0.7500000000000000    0.7500000000000000    0.7500000000000000 Cu
