Al1 Cu3
1.0
      3.0065157131       0.0000000000       1.7358125142
      1.0021724737       2.8345695280       1.7358125145
      0.0000000000       0.0000000000       3.4716241790
Al Cu
1 3
direct
   0.0000000000000000    0.0000000000000000    0.0000000000000000 Al
   0.5000000000000000    0.5000000000000000    0.5000000000000000 Cu
   0.2500000000000000    0.2500000000000000    0.2500000000000000 Cu
   0.7500000000000000    0.7500000000000000    0.7500000000000000 Cu
