Al1 Cu3
1.0
      3.1833695785       0.0000000000       1.8379191327
      1.0611237956       3.0013089120       1.8379191330
      0.0000000000       0.0000000000       3.6758373660
Al Cu
1 3
direct
   0.0000000000000000    0.0000000000000000    0.0000000000000000 Al
   0.5000000000000000    0.5000000000000000    0.5000000000000000 Cu
   0.2500000000000000    0.2500000000000000    0.2500000000000000 Cu
   0.7500000000000000    0.7500000000000000    0.7500000000000000 Cu
