Al1 Cu3
1.0
      3.3602234440       0.0000000000       1.9400257512
      1.1200751176       3.1680482960       1.9400257515
      0.0000000000       0.0000000000       3.8800505530
Al Cu
1 3
direct
   0.0000000000000000    0.0000000000000000    0.0000000000000000 Al
   0.5000000000000000    0.5000000000000000    0.5000000000000000 Cu
   0.2500000000000000    0.2500000000000000    0.2500000000000000 Cu
   0.7500000000000000    0.7500000000000000    0.7500000000000000 Cu
