Al1 Cu3
1.0
      2.8296618476       0.0000000000       1.6337058957
      0.9432211517       2.6678301440       1.6337058960
      0.0000000000       0.0000000000       3.2674109920
Al Cu
1 3
direct
   0.0000000000000000    0.0000000000000000    0.0000000000000000 Al
   0.5000000000000000    0.5000000000000000    0.5000000000000000 Cu
   0.2500000000000000    0.2500000000000000    0.2500000000000000 Cu
   0.7500000000000000    0.7500000000000000    0.7500000000000000 Cu
