Mn4 B2
1.0
      3.2037445250       0.0000000000      -0.8147305706
     -1.9369848756       2.5518769486      -0.8147291856
      0.0000000000       0.0000000000       3.3053610080
Mn B
4 2
direct
   0.6634620000000000    0.1634620000000000    0.8269249900000000 Mn
   0.1633803300000000    0.3366196700000000    0.5000000000000000 Mn
   0.8366196700000000    0.6633803300000000    0.5000000000000000 Mn
   0.3365380000000000    0.8365380000000000    0.1730750100000000 Mn
   0.2500000000000000    0.2500000000000000    0.0000000000000000 B
   0.7500000000000000    0.7500000000000000    0.0000000000000000 B
