Mn4 B2
1.0
      3.6042125906       0.0000000000      -0.9165718919
     -2.1791079850       2.8708615671      -0.9165703338
      0.0000000000       0.0000000000       3.7185311340
Mn B
4 2
direct
   0.6634620000000000    0.1634620000000000    0.8269249900000000 Mn
   0.1633803300000000    0.3366196700000000    0.5000000000000000 Mn
   0.8366196700000000    0.6633803300000000    0.5000000000000000 Mn
   0.3365380000000000    0.8365380000000000    0.1730750100000000 Mn
   0.2500000000000000    0.2500000000000000    0.0000000000000000 B
   0.7500000000000000    0.7500000000000000    0.0000000000000000 B
