Mn4 B2
1.0
      3.8044466234       0.0000000000      -0.9674925526
     -2.3001695397       3.0303538764      -0.9674909079
      0.0000000000       0.0000000000       3.9251161970
Mn B
4 2
direct
   0.6634620000000000    0.1634620000000000    0.8269249900000000 Mn
   0.1633803300000000    0.3366196700000000    0.5000000000000000 Mn
   0.8366196700000000    0.6633803300000000    0.5000000000000000 Mn
   0.3365380000000000    0.8365380000000000    0.1730750100000000 Mn
   0.2500000000000000    0.2500000000000000    0.0000000000000000 B
   0.7500000000000000    0.7500000000000000    0.0000000000000000 B
