Mn4 B2
1.0
      3.4039785578       0.0000000000      -0.8656512313
     -2.0580464303       2.7113692578      -0.8656497597
      0.0000000000       0.0000000000       3.5119460710
Mn B
4 2
direct
   0.6634620000000000    0.1634620000000000    0.8269249900000000 Mn
   0.1633803300000000    0.3366196700000000    0.5000000000000000 Mn
   0.8366196700000000    0.6633803300000000    0.5000000000000000 Mn
   0.3365380000000000    0.8365380000000000    0.1730750100000000 Mn
   0.2500000000000000    0.2500000000000000    0.0000000000000000 B
   0.7500000000000000    0.7500000000000000    0.0000000000000000 B
