Zr2 Cu2
1.0
      3.5174836000       0.0000000000       0.0000000000
     -0.0000000000       2.6502872841       0.7554768254
      0.0000000000       0.0000000000       4.6831285925
Zr Cu
2 2
direct
   0.7500000000000000    0.6474020000000000    0.1936750000000000 Zr
   0.2500000000000000    0.3525980000000000    0.8063250000000000 Zr
   0.7500000000000000    0.9407830000000000    0.6376970000000000 Cu
   0.2500000000000000    0.0592170000000000    0.3623030000000000 Cu
