Zr2 Cu2
1.0
      3.9313052000       0.0000000000       0.0000000000
     -0.0000000000       2.9620857882       0.8443564519
      0.0000000000       0.0000000000       5.2340848975
Zr Cu
2 2
direct
   0.7500000000000000    0.6474020000000000    0.1936750000000000 Zr
   0.2500000000000000    0.3525980000000000    0.8063250000000000 Zr
   0.7500000000000000    0.9407830000000000    0.6376970000000000 Cu
   0.2500000000000000    0.0592170000000000    0.3623030000000000 Cu
