Li6 Pm2
1.0
      6.3687997435       0.0000000000       0.0000000000
     -3.1843996195       5.5155425151       0.0000000000
      0.0000000000       0.0000000000       4.8257254500
Li Pm
6 2
direct
   0.8519010000000000    0.1480990000000000    0.7500000000000000 Li
   0.2961970000000000    0.1480990000000000    0.7500000000000000 Li
   0.8519010000000000    0.7038030000000000    0.7500000000000000 Li
   0.1480990000000000    0.8519010000000000    0.2500000000000000 Li
   0.7038030000000000    0.8519010000000000    0.2500000000000000 Li
   0.1480990000000000    0.2961970000000000    0.2500000000000000 Li
   0.6666666666666666    0.3333333333333333    0.2500000000000000 Pm
   0.3333333333333333    0.6666666666666666    0.7500000000000000 Pm
