Li6 Pm2
1.0
      5.3631997840       0.0000000000       0.0000000000
     -2.6815996796       4.6446673811       0.0000000000
      0.0000000000       0.0000000000       4.0637688000
Li Pm
6 2
direct
   0.8519010000000000    0.1480990000000000    0.7500000000000000 Li
   0.2961970000000000    0.1480990000000000    0.7500000000000000 Li
   0.8519010000000000    0.7038030000000000    0.7500000000000000 Li
   0.1480990000000000    0.8519010000000000    0.2500000000000000 Li
   0.7038030000000000    0.8519010000000000    0.2500000000000000 Li
   0.1480990000000000    0.2961970000000000    0.2500000000000000 Li
   0.6666666666666666    0.3333333333333333    0.2500000000000000 Pm
   0.3333333333333333    0.6666666666666666    0.7500000000000000 Pm
