Li1 C12
1.0
      4.0651786870       0.0000000000       0.0000000000
     -2.0325881091       3.5205487266       0.0000000000
      0.0000000000       0.0000000000       6.6756169970
Li C
1 12
direct
   0.0000000000000000    0.0000000000000000    0.0000000000000000 Li
   0.3331805300000000    0.0000000000000000    0.2644703100000000 C
   0.6668194700000000    0.6668194700000000    0.2644703100000000 C
   0.0000000000000000    0.3331805300000000    0.2644703100000000 C
   0.6668194700000000    0.0000000000000000    0.2644703100000000 C
   0.3331805300000000    0.3331805300000000    0.2644703100000000 C
   0.0000000000000000    0.6668194700000000    0.2644703100000000 C
   0.6668194700000000    0.0000000000000000    0.7355296900000000 C
   0.3331805300000000    0.3331805300000000    0.7355296900000000 C
   0.0000000000000000    0.6668194700000000    0.7355296900000000 C
   0.3331805300000000    0.0000000000000000    0.7355296900000000 C
   0.6668194700000000    0.6668194700000000    0.7355296900000000 C
   0.0000000000000000    0.3331805300000000    0.7355296900000000 C
