Li1 Cd3
1.0
      3.1200782478       0.0000000000       1.8013780163
      1.0400260826       2.9416379825       1.8013780163
      0.0000000000       0.0000000000       3.6027560325
Li Cd
1 3
direct
   0.7500000000000000    0.7500000000000000    0.7500000000000000 Li
   0.0000000000000000    0.0000000000000000    0.0000000000000000 Cd
   0.5000000000000000    0.5000000000000000    0.5000000000000000 Cd
   0.2500010000000000    0.2500010000000000    0.2500010000000000 Cd
