Li1 Cd3
1.0
      3.9520991139       0.0000000000       2.2817454873
      1.3173663713       3.7260747778       2.2817454873
      0.0000000000       0.0000000000       4.5634909745
Li Cd
1 3
direct
   0.7500000000000000    0.7500000000000000    0.7500000000000000 Li
   0.0000000000000000    0.0000000000000000    0.0000000000000000 Cd
   0.5000000000000000    0.5000000000000000    0.5000000000000000 Cd
   0.2500010000000000    0.2500010000000000    0.2500010000000000 Cd
