Li1 Cd3
1.0
      3.3280834643       0.0000000000       1.9214698840
      1.1093611548       3.1377471813       1.9214698840
      0.0000000000       0.0000000000       3.8429397680
Li Cd
1 3
direct
   0.7500000000000000    0.7500000000000000    0.7500000000000000 Li
   0.0000000000000000    0.0000000000000000    0.0000000000000000 Cd
   0.5000000000000000    0.5000000000000000    0.5000000000000000 Cd
   0.2500010000000000    0.2500010000000000    0.2500010000000000 Cd
