Li1 Cd3
1.0
      3.7440938973       0.0000000000       2.1616536195
      1.2480312991       3.5299655789       2.1616536195
      0.0000000000       0.0000000000       4.3233072390
Li Cd
1 3
direct
   0.7500000000000000    0.7500000000000000    0.7500000000000000 Li
   0.0000000000000000    0.0000000000000000    0.0000000000000000 Cd
   0.5000000000000000    0.5000000000000000    0.5000000000000000 Cd
   0.2500010000000000    0.2500010000000000    0.2500010000000000 Cd
