Li1 Cd3
1.0
      3.5360886808       0.0000000000       2.0415617518
      1.1786962269       3.3338563801       2.0415617518
      0.0000000000       0.0000000000       4.0831235035
Li Cd
1 3
direct
   0.7500000000000000    0.7500000000000000    0.7500000000000000 Li
   0.0000000000000000    0.0000000000000000    0.0000000000000000 Cd
   0.5000000000000000    0.5000000000000000    0.5000000000000000 Cd
   0.2500010000000000    0.2500010000000000    0.2500010000000000 Cd
