Li6 Dy2
1.0
      5.5393600785       0.0000000000       0.0000000000
     -2.7696802176       4.7972264457       0.0000000000
      0.0000000000       0.0000000000       4.3303938500
Li Dy
6 2
direct
   0.1510130000000000    0.3020260000000000    0.2500000000000000 Li
   0.6979740000000000    0.8489870000000000    0.2500000000000000 Li
   0.1510130000000000    0.8489870000000000    0.2500000000000000 Li
   0.8489870000000000    0.6979740000000000    0.7500000000000000 Li
   0.3020260000000000    0.1510130000000000    0.7500000000000000 Li
   0.8489870000000000    0.1510130000000000    0.7500000000000000 Li
   0.3333333333333333    0.6666666666666666    0.7500000000000000 Dy
   0.6666666666666666    0.3333333333333333    0.2500000000000000 Dy
