K3 Cd1
1.0
      4.2348659847       0.0000000000       2.4450010163
      1.4116219949       3.9926699403       2.4450010163
      0.0000000000       0.0000000000       4.8900020325
K Cd
3 1
direct
   0.0000000000000000    0.0000000000000000    0.0000000000000000 K
   0.4999990000000000    0.4999990000000000    0.4999990000000000 K
   0.2500010000000000    0.2500010000000000    0.2500010000000000 K
   0.7500000000000000    0.7500000000000000    0.7500000000000000 Cd
