K3 Cd1
1.0
      4.7995147827       0.0000000000       2.7710011518
      1.5998382609       4.5250259323       2.7710011518
      0.0000000000       0.0000000000       5.5420023035
K Cd
3 1
direct
   0.0000000000000000    0.0000000000000000    0.0000000000000000 K
   0.4999990000000000    0.4999990000000000    0.4999990000000000 K
   0.2500010000000000    0.2500010000000000    0.2500010000000000 K
   0.7500000000000000    0.7500000000000000    0.7500000000000000 Cd
