K3 Cd1
1.0
      5.0818391816       0.0000000000       2.9340012195
      1.6939463939       4.7912039283       2.9340012195
      0.0000000000       0.0000000000       5.8680024390
K Cd
3 1
direct
   0.0000000000000000    0.0000000000000000    0.0000000000000000 K
   0.4999990000000000    0.4999990000000000    0.4999990000000000 K
   0.2500010000000000    0.2500010000000000    0.2500010000000000 K
   0.7500000000000000    0.7500000000000000    0.7500000000000000 Cd
