K3 Cd1
1.0
      5.3641635806       0.0000000000       3.0970012873
      1.7880545269       5.0573819243       3.0970012873
      0.0000000000       0.0000000000       6.1940025745
K Cd
3 1
direct
   0.0000000000000000    0.0000000000000000    0.0000000000000000 K
   0.4999990000000000    0.4999990000000000    0.4999990000000000 K
   0.2500010000000000    0.2500010000000000    0.2500010000000000 K
   0.7500000000000000    0.7500000000000000    0.7500000000000000 Cd
