K3 Cd1
1.0
      4.5171903837       0.0000000000       2.6080010840
      1.5057301279       4.2588479363       2.6080010840
      0.0000000000       0.0000000000       5.2160021680
K Cd
3 1
direct
   0.0000000000000000    0.0000000000000000    0.0000000000000000 K
   0.4999990000000000    0.4999990000000000    0.4999990000000000 K
   0.2500010000000000    0.2500010000000000    0.2500010000000000 K
   0.7500000000000000    0.7500000000000000    0.7500000000000000 Cd
