Li3 W1
1.0
      2.8381635315       0.0000000000      -2.9910459671
     -0.4516930317       2.8019895853      -2.9910459671
      0.0000000000       0.0000000000       4.1232909440
Li W
3 1
direct
   0.7500000000000000    0.2500000000000000    0.5000000000000000 Li
   0.2500000000000000    0.7500000000000000    0.5000000000000000 Li
   0.5000000000000000    0.5000000000000000    0.0000000000000000 Li
   0.0000000000000000    0.0000000000000000    0.0000000000000000 W
