Li3 W1
1.0
      3.3703191936       0.0000000000      -3.5518670860
     -0.5363854752       3.3273626326      -3.5518670860
      0.0000000000       0.0000000000       4.8964079960
Li W
3 1
direct
   0.7500000000000000    0.2500000000000000    0.5000000000000000 Li
   0.2500000000000000    0.7500000000000000    0.5000000000000000 Li
   0.5000000000000000    0.5000000000000000    0.0000000000000000 Li
   0.0000000000000000    0.0000000000000000    0.0000000000000000 W
