Li3 W1
1.0
      3.0155487522       0.0000000000      -3.1779863401
     -0.4799238462       2.9771139344      -3.1779863401
      0.0000000000       0.0000000000       4.3809966280
Li W
3 1
direct
   0.7500000000000000    0.2500000000000000    0.5000000000000000 Li
   0.2500000000000000    0.7500000000000000    0.5000000000000000 Li
   0.5000000000000000    0.5000000000000000    0.0000000000000000 Li
   0.0000000000000000    0.0000000000000000    0.0000000000000000 W
