Cu1 Br2
1.0
      3.9362011485       0.0000000000      -6.1070239734
     -0.3410330334       3.9213997439      -6.1070239734
      0.0000000000       0.0000000000       7.2656328900
Cu Br
1 2
direct
   0.0000000000000000    0.0000000000000000    0.0000000000000000 Cu
   0.5000000000000000    0.0000000000000000    0.5000000000000000 Br
   0.0000000000000000    0.5000000000000000    0.5000000000000000 Br
