Cu1 Br2
1.0
      4.1677423925       0.0000000000      -6.4662606777
     -0.3610938000       4.1520703171      -6.4662606777
      0.0000000000       0.0000000000       7.6930230600
Cu Br
1 2
direct
   0.0000000000000000    0.0000000000000000    0.0000000000000000 Cu
   0.5000000000000000    0.0000000000000000    0.5000000000000000 Br
   0.0000000000000000    0.5000000000000000    0.5000000000000000 Br
