Cu1 Br2
1.0
      3.7046599044       0.0000000000      -5.7477872690
     -0.3209722667       3.6907291707      -5.7477872690
      0.0000000000       0.0000000000       6.8382427200
Cu Br
1 2
direct
   0.0000000000000000    0.0000000000000000    0.0000000000000000 Cu
   0.5000000000000000    0.0000000000000000    0.5000000000000000 Br
   0.0000000000000000    0.5000000000000000    0.5000000000000000 Br
