Li5 Sn2
1.0
      3.5522011442       0.0000000000       4.4227030495
      1.5562023170       3.1931757826       4.4227030295
      0.0000000000       0.0000000000       5.6726046720
Li Sn
5 2
direct
   0.5000000000000000    0.5000000000000000    0.5000000000000000 Li
   0.3547551500000000    0.3547551500000000    0.3547551500000000 Li
   0.6452448500000000    0.6452448500000000    0.6452448500000000 Li
   0.2142424900000000    0.2142424900000000    0.2142424900000000 Li
   0.7857575100000000    0.7857575100000000    0.7857575100000000 Li
   0.0733881700000000    0.0733881700000000    0.0733881700000000 Sn
   0.9266118300000000    0.9266118300000000    0.9266118300000000 Sn
