Li5 Sn2
1.0
      3.7742137158       0.0000000000       4.6991219901
      1.6534649619       3.3927492691       4.6991219688
      0.0000000000       0.0000000000       6.0271424640
Li Sn
5 2
direct
   0.5000000000000000    0.5000000000000000    0.5000000000000000 Li
   0.3547551500000000    0.3547551500000000    0.3547551500000000 Li
   0.6452448500000000    0.6452448500000000    0.6452448500000000 Li
   0.2142424900000000    0.2142424900000000    0.2142424900000000 Li
   0.7857575100000000    0.7857575100000000    0.7857575100000000 Li
   0.0733881700000000    0.0733881700000000    0.0733881700000000 Sn
   0.9266118300000000    0.9266118300000000    0.9266118300000000 Sn
