Mg1 Cu3
1.0
      2.8860003829       0.0000000000      -2.5894544117
     -0.5747808159       2.8281840859      -2.5894544117
      0.0000000000       0.0000000000       3.8774053645
Mg Cu
1 3
direct
   0.0000000000000000    0.0000000000000000    0.0000000000000000 Mg
   0.5000000000000000    0.5000000000000000    0.0000000000000000 Cu
   0.7500000000000000    0.2500000000000000    0.5000000000000000 Cu
   0.2500000000000000    0.7500000000000000    0.5000000000000000 Cu
