Mg1 Cu3
1.0
      3.2255298397       0.0000000000      -2.8940961072
     -0.6424020884       3.1609116254      -2.8940961072
      0.0000000000       0.0000000000       4.3335707015
Mg Cu
1 3
direct
   0.0000000000000000    0.0000000000000000    0.0000000000000000 Mg
   0.5000000000000000    0.5000000000000000    0.0000000000000000 Cu
   0.7500000000000000    0.2500000000000000    0.5000000000000000 Cu
   0.2500000000000000    0.7500000000000000    0.5000000000000000 Cu
