Mg1 Cu3
1.0
      2.7162356545       0.0000000000      -2.4371335640
     -0.5409701797       2.6618203162      -2.4371335640
      0.0000000000       0.0000000000       3.6493226960
Mg Cu
1 3
direct
   0.0000000000000000    0.0000000000000000    0.0000000000000000 Mg
   0.5000000000000000    0.5000000000000000    0.0000000000000000 Cu
   0.7500000000000000    0.2500000000000000    0.5000000000000000 Cu
   0.2500000000000000    0.7500000000000000    0.5000000000000000 Cu
