Mg1 Cu3
1.0
      3.0557651113       0.0000000000      -2.7417752595
     -0.6085914522       2.9945478557      -2.7417752595
      0.0000000000       0.0000000000       4.1054880330
Mg Cu
1 3
direct
   0.0000000000000000    0.0000000000000000    0.0000000000000000 Mg
   0.5000000000000000    0.5000000000000000    0.0000000000000000 Cu
   0.7500000000000000    0.2500000000000000    0.5000000000000000 Cu
   0.2500000000000000    0.7500000000000000    0.5000000000000000 Cu
