Mg1 Cu3
1.0
      2.5464709261       0.0000000000      -2.2848127162
     -0.5071595435       2.4954565464      -2.2848127162
      0.0000000000       0.0000000000       3.4212400275
Mg Cu
1 3
direct
   0.0000000000000000    0.0000000000000000    0.0000000000000000 Mg
   0.5000000000000000    0.5000000000000000    0.0000000000000000 Cu
   0.7500000000000000    0.2500000000000000    0.5000000000000000 Cu
   0.2500000000000000    0.7500000000000000    0.5000000000000000 Cu
