K8 Bi2
1.0
      7.0382109801       0.0000000000       4.0635130040
      2.3460703267       6.6356889486       4.0635130040
      0.0000000000       0.0000000000       8.1270260080
K Bi
8 2
direct
   0.3831020000000000    0.3831020000000000    0.3831020000000000 K
   0.3831020000000000    0.3831020000000000    0.8506940000000000 K
   0.3831020000000000    0.8506940000000000    0.3831020000000000 K
   0.8668979999999999    0.8668979999999999    0.3993060000000000 K
   0.8668979999999999    0.8668979999999999    0.8668979999999999 K
   0.8506940000000000    0.3831020000000000    0.3831020000000000 K
   0.8668979999999999    0.3993060000000000    0.8668979999999999 K
   0.3993060000000000    0.8668979999999999    0.8668979999999999 K
   0.0000000000000000    0.0000000000000000    0.0000000000000000 Bi
   0.2500000000000000    0.2500000000000000    0.2500000000000000 Bi
