K8 Bi2
1.0
      8.3578755389       0.0000000000       4.8254216923
      2.7859585130       7.8798806265       4.8254216923
      0.0000000000       0.0000000000       9.6508433845
K Bi
8 2
direct
   0.3831020000000000    0.3831020000000000    0.3831020000000000 K
   0.3831020000000000    0.3831020000000000    0.8506940000000000 K
   0.3831020000000000    0.8506940000000000    0.3831020000000000 K
   0.8668979999999999    0.8668979999999999    0.3993060000000000 K
   0.8668979999999999    0.8668979999999999    0.8668979999999999 K
   0.8506940000000000    0.3831020000000000    0.3831020000000000 K
   0.8668979999999999    0.3993060000000000    0.8668979999999999 K
   0.3993060000000000    0.8668979999999999    0.8668979999999999 K
   0.0000000000000000    0.0000000000000000    0.0000000000000000 Bi
   0.2500000000000000    0.2500000000000000    0.2500000000000000 Bi
