K8 Bi2
1.0
      7.9179873527       0.0000000000       4.5714521295
      2.6393291176       7.4651500672       4.5714521295
      0.0000000000       0.0000000000       9.1429042590
K Bi
8 2
direct
   0.3831020000000000    0.3831020000000000    0.3831020000000000 K
   0.3831020000000000    0.3831020000000000    0.8506940000000000 K
   0.3831020000000000    0.8506940000000000    0.3831020000000000 K
   0.8668979999999999    0.8668979999999999    0.3993060000000000 K
   0.8668979999999999    0.8668979999999999    0.8668979999999999 K
   0.8506940000000000    0.3831020000000000    0.3831020000000000 K
   0.8668979999999999    0.3993060000000000    0.8668979999999999 K
   0.3993060000000000    0.8668979999999999    0.8668979999999999 K
   0.0000000000000000    0.0000000000000000    0.0000000000000000 Bi
   0.2500000000000000    0.2500000000000000    0.2500000000000000 Bi
