K8 Bi2
1.0
      6.5983227939       0.0000000000       3.8095434413
      2.1994409313       6.2209583894       3.8095434413
      0.0000000000       0.0000000000       7.6190868825
K Bi
8 2
direct
   0.3831020000000000    0.3831020000000000    0.3831020000000000 K
   0.3831020000000000    0.3831020000000000    0.8506940000000000 K
   0.3831020000000000    0.8506940000000000    0.3831020000000000 K
   0.8668979999999999    0.8668979999999999    0.3993060000000000 K
   0.8668979999999999    0.8668979999999999    0.8668979999999999 K
   0.8506940000000000    0.3831020000000000    0.3831020000000000 K
   0.8668979999999999    0.3993060000000000    0.8668979999999999 K
   0.3993060000000000    0.8668979999999999    0.8668979999999999 K
   0.0000000000000000    0.0000000000000000    0.0000000000000000 Bi
   0.2500000000000000    0.2500000000000000    0.2500000000000000 Bi
