K8 Bi2
1.0
      7.4780991664       0.0000000000       4.3174825668
      2.4926997221       7.0504195079       4.3174825668
      0.0000000000       0.0000000000       8.6349651335
K Bi
8 2
direct
   0.3831020000000000    0.3831020000000000    0.3831020000000000 K
   0.3831020000000000    0.3831020000000000    0.8506940000000000 K
   0.3831020000000000    0.8506940000000000    0.3831020000000000 K
   0.8668979999999999    0.8668979999999999    0.3993060000000000 K
   0.8668979999999999    0.8668979999999999    0.8668979999999999 K
   0.8506940000000000    0.3831020000000000    0.3831020000000000 K
   0.8668979999999999    0.3993060000000000    0.8668979999999999 K
   0.3993060000000000    0.8668979999999999    0.8668979999999999 K
   0.0000000000000000    0.0000000000000000    0.0000000000000000 Bi
   0.2500000000000000    0.2500000000000000    0.2500000000000000 Bi
