Mn3 Ge1
1.0
      3.0007085503       0.0000000000       1.7324598893
      1.0002361834       2.8290951523       1.7324598893
      0.0000000000       0.0000000000       3.4649197785
Mn Ge
3 1
direct
   0.0000000000000000    0.0000000000000000    0.0000000000000000 Mn
   0.5000010000000000    0.5000010000000000    0.5000010000000000 Mn
   0.2500010000000000    0.2500010000000000    0.2500010000000000 Mn
   0.7500000000000000    0.7500000000000000    0.7500000000000000 Ge
