Mn3 Ge1
1.0
      3.3537330856       0.0000000000       1.9362786998
      1.1179110285       3.1619298761       1.9362786998
      0.0000000000       0.0000000000       3.8725573995
Mn Ge
3 1
direct
   0.0000000000000000    0.0000000000000000    0.0000000000000000 Mn
   0.5000010000000000    0.5000010000000000    0.5000010000000000 Mn
   0.2500010000000000    0.2500010000000000    0.2500010000000000 Mn
   0.7500000000000000    0.7500000000000000    0.7500000000000000 Ge
