Mn3 Ge1
1.0
      3.1772208179       0.0000000000       1.8343692945
      1.0590736060       2.9955125142       1.8343692945
      0.0000000000       0.0000000000       3.6687385890
Mn Ge
3 1
direct
   0.0000000000000000    0.0000000000000000    0.0000000000000000 Mn
   0.5000010000000000    0.5000010000000000    0.5000010000000000 Mn
   0.2500010000000000    0.2500010000000000    0.2500010000000000 Mn
   0.7500000000000000    0.7500000000000000    0.7500000000000000 Ge
