Mn3 Ge1
1.0
      2.8241962826       0.0000000000       1.6305504840
      0.9413987609       2.6626777904       1.6305504840
      0.0000000000       0.0000000000       3.2611009680
Mn Ge
3 1
direct
   0.0000000000000000    0.0000000000000000    0.0000000000000000 Mn
   0.5000010000000000    0.5000010000000000    0.5000010000000000 Mn
   0.2500010000000000    0.2500010000000000    0.2500010000000000 Mn
   0.7500000000000000    0.7500000000000000    0.7500000000000000 Ge
