Mn3 Ge1
1.0
      2.6476840149       0.0000000000       1.5286410788
      0.8825613383       2.4962604285       1.5286410788
      0.0000000000       0.0000000000       3.0572821575
Mn Ge
3 1
direct
   0.0000000000000000    0.0000000000000000    0.0000000000000000 Mn
   0.5000010000000000    0.5000010000000000    0.5000010000000000 Mn
   0.2500010000000000    0.2500010000000000    0.2500010000000000 Mn
   0.7500000000000000    0.7500000000000000    0.7500000000000000 Ge
