Li3 Hg1
1.0
      3.5860964214       0.0000000000      -2.0169196465
     -1.2267668075       3.3697374888      -2.0169196465
      0.0000000000       0.0000000000       4.1143714470
Li Hg
3 1
direct
   0.7500000000000000    0.2500000000000000    0.5000000000000000 Li
   0.2500000000000000    0.7500000000000000    0.5000000000000000 Li
   0.5000010000000000    0.5000010000000000    0.0000000000000000 Li
   0.0000000000000000    0.0000000000000000    0.0000000000000000 Hg
