Li3 Hg1
1.0
      2.9884136845       0.0000000000      -1.6807663721
     -1.0223056729       2.8081145740      -1.6807663721
      0.0000000000       0.0000000000       3.4286428725
Li Hg
3 1
direct
   0.7500000000000000    0.2500000000000000    0.5000000000000000 Li
   0.2500000000000000    0.7500000000000000    0.5000000000000000 Li
   0.5000010000000000    0.5000010000000000    0.0000000000000000 Li
   0.0000000000000000    0.0000000000000000    0.0000000000000000 Hg
