Li3 Hg1
1.0
      3.3868688424       0.0000000000      -1.9048685551
     -1.1586130959       3.1825298505      -1.9048685551
      0.0000000000       0.0000000000       3.8857952555
Li Hg
3 1
direct
   0.7500000000000000    0.2500000000000000    0.5000000000000000 Li
   0.2500000000000000    0.7500000000000000    0.5000000000000000 Li
   0.5000010000000000    0.5000010000000000    0.0000000000000000 Li
   0.0000000000000000    0.0000000000000000    0.0000000000000000 Hg
