Zr2 Zn4
1.0
      3.8294823495       0.0000000000       2.2109552399
      1.2764932472       3.6104703236       2.2109538545
      0.0000000000       0.0000000000       4.4219054620
Zr Zn
2 4
direct
   0.8750000000000000    0.8750000000000000    0.8750000000000000 Zr
   0.1250000000000000    0.1250000000000000    0.1250000000000000 Zr
   0.5000000000000000    0.5000000000000000    0.5000000000000000 Zn
   0.5000000000000000    0.5000000000000000    0.0000000000000000 Zn
   0.0000000000000000    0.5000000000000000    0.5000000000000000 Zn
   0.5000000000000000    0.0000000000000000    0.5000000000000000 Zn
