Zr2 Zn4
1.0
      4.2800096848       0.0000000000       2.4710676211
      1.4266689233       4.0352315382       2.4710660727
      0.0000000000       0.0000000000       4.9421296340
Zr Zn
2 4
direct
   0.8750000000000000    0.8750000000000000    0.8750000000000000 Zr
   0.1250000000000000    0.1250000000000000    0.1250000000000000 Zr
   0.5000000000000000    0.5000000000000000    0.5000000000000000 Zn
   0.5000000000000000    0.5000000000000000    0.0000000000000000 Zn
   0.0000000000000000    0.5000000000000000    0.5000000000000000 Zn
   0.5000000000000000    0.0000000000000000    0.5000000000000000 Zn
