Zr2 Zn4
1.0
      4.0547460172       0.0000000000       2.3410114305
      1.3515810853       3.8228509309       2.3410099636
      0.0000000000       0.0000000000       4.6820175480
Zr Zn
2 4
direct
   0.8750000000000000    0.8750000000000000    0.8750000000000000 Zr
   0.1250000000000000    0.1250000000000000    0.1250000000000000 Zr
   0.5000000000000000    0.5000000000000000    0.5000000000000000 Zn
   0.5000000000000000    0.5000000000000000    0.0000000000000000 Zn
   0.0000000000000000    0.5000000000000000    0.5000000000000000 Zn
   0.5000000000000000    0.0000000000000000    0.5000000000000000 Zn
