Li3 Pb1
1.0
      3.2431555154       0.0000000000      -1.9034643420
     -1.0633221792       3.0638870149      -1.9034643420
      0.0000000000       0.0000000000       3.7604832400
Li Pb
3 1
direct
   0.7500019999999999    0.2500010000000000    0.5000010000000000 Li
   0.2500010000000000    0.7500019999999999    0.5000010000000000 Li
   0.5000000000000000    0.5000000000000000    0.0000000000000000 Li
   0.0000000000000000    0.0000000000000000    0.0000000000000000 Pb
