Li3 Pb1
1.0
      3.8512471746       0.0000000000      -2.2603639061
     -1.2626950878       3.6383658303      -2.2603639061
      0.0000000000       0.0000000000       4.4655738475
Li Pb
3 1
direct
   0.7500019999999999    0.2500010000000000    0.5000010000000000 Li
   0.2500010000000000    0.7500019999999999    0.5000010000000000 Li
   0.5000000000000000    0.5000000000000000    0.0000000000000000 Li
   0.0000000000000000    0.0000000000000000    0.0000000000000000 Pb
