Li3 Pb1
1.0
      3.6485499548       0.0000000000      -2.1413973847
     -1.1962374516       3.4468728918      -2.1413973847
      0.0000000000       0.0000000000       4.2305436450
Li Pb
3 1
direct
   0.7500019999999999    0.2500010000000000    0.5000010000000000 Li
   0.2500010000000000    0.7500019999999999    0.5000010000000000 Li
   0.5000000000000000    0.5000000000000000    0.0000000000000000 Li
   0.0000000000000000    0.0000000000000000    0.0000000000000000 Pb
