Cs1 K1
1.0
      3.7557255975       0.0000000000       0.0000000000
     -0.6015548036       3.7072370550       0.0000000000
      0.0000000000       0.0000000000       5.9145057900
Cs K
1 1
direct
   0.0000000000000000    0.0000000000000000    0.0000000000000000 Cs
   0.5000000000000000    0.5000000000000000    0.5000000000000000 K
