Cs1 K1
1.0
      4.5068707170       0.0000000000       0.0000000000
     -0.7218657643       4.4486844660       0.0000000000
      0.0000000000       0.0000000000       7.0974069480
Cs K
1 1
direct
   0.0000000000000000    0.0000000000000000    0.0000000000000000 Cs
   0.5000000000000000    0.5000000000000000    0.5000000000000000 K
