Cs1 K1
1.0
      4.0061073040       0.0000000000       0.0000000000
     -0.6416584572       3.9543861920       0.0000000000
      0.0000000000       0.0000000000       6.3088061760
Cs K
1 1
direct
   0.0000000000000000    0.0000000000000000    0.0000000000000000 Cs
   0.5000000000000000    0.5000000000000000    0.5000000000000000 K
