Cs1 K1
1.0
      4.2564890105       0.0000000000       0.0000000000
     -0.6817621108       4.2015353290       0.0000000000
      0.0000000000       0.0000000000       6.7031065620
Cs K
1 1
direct
   0.0000000000000000    0.0000000000000000    0.0000000000000000 Cs
   0.5000000000000000    0.5000000000000000    0.5000000000000000 K
