Cs1 K1
1.0
      4.7572524235       0.0000000000       0.0000000000
     -0.7619694179       4.6958336030       0.0000000000
      0.0000000000       0.0000000000       7.4917073340
Cs K
1 1
direct
   0.0000000000000000    0.0000000000000000    0.0000000000000000 Cs
   0.5000000000000000    0.5000000000000000    0.5000000000000000 K
