Mg6 Bi6
1.0
      4.7988148320       0.0000000000       0.0000000000
     -0.0000000000       3.1886332650       0.0000000000
      0.0000000000       0.0000000000      15.9647525640
Mg Bi
6 6
direct
   0.0000000000000000    0.5000000000000000    0.1645714200000000 Mg
   0.5000000000000000    0.5000000000000000    0.0602271400000000 Mg
   0.5000000000000000    0.0000000000000000    0.2137181100000000 Mg
   0.0000000000000000    0.0000000000000000    0.6645714200000000 Mg
   0.5000000000000000    0.0000000000000000    0.5602271400000000 Mg
   0.5000000000000000    0.5000000000000000    0.7137181100000000 Mg
   0.0000000000000000    0.0000000000000000    0.0180298700000000 Bi
   0.0000000000000000    0.0000000000000000    0.3055102500000000 Bi
   0.5000000000000000    0.5000000000000000    0.4046102100000000 Bi
   0.0000000000000000    0.5000000000000000    0.5180298700000000 Bi
   0.0000000000000000    0.5000000000000000    0.8055102500000000 Bi
   0.5000000000000000    0.0000000000000000    0.9046102100000000 Bi
