K1 C1
1.0
      3.0299933357       0.0000000000       1.7493674680
      1.0099977786       2.8567051128       1.7493674680
      0.0000000000       0.0000000000       3.4987349360
K C
1 1
direct
   0.0000000000000000    0.0000000000000000    0.0000000000000000 K
   0.5000000000000000    0.5000000000000000    0.5000000000000000 C
