K1 C1
1.0
      3.2193679192       0.0000000000       1.8587029348
      1.0731226397       3.0352491824       1.8587029348
      0.0000000000       0.0000000000       3.7174058695
K C
1 1
direct
   0.0000000000000000    0.0000000000000000    0.0000000000000000 K
   0.5000000000000000    0.5000000000000000    0.5000000000000000 C
