K1 C1
1.0
      2.8406187522       0.0000000000       1.6400320013
      0.9468729174       2.6781610433       1.6400320013
      0.0000000000       0.0000000000       3.2800640025
K C
1 1
direct
   0.0000000000000000    0.0000000000000000    0.0000000000000000 K
   0.5000000000000000    0.5000000000000000    0.5000000000000000 C
