K1 C1
1.0
      3.5981170861       0.0000000000       2.0773738683
      1.1993723620       3.3923373215       2.0773738683
      0.0000000000       0.0000000000       4.1547477365
K C
1 1
direct
   0.0000000000000000    0.0000000000000000    0.0000000000000000 K
   0.5000000000000000    0.5000000000000000    0.5000000000000000 C
