K1 C1
1.0
      3.4087425026       0.0000000000       1.9680384015
      1.1362475009       3.2137932519       1.9680384015
      0.0000000000       0.0000000000       3.9360768030
K C
1 1
direct
   0.0000000000000000    0.0000000000000000    0.0000000000000000 K
   0.5000000000000000    0.5000000000000000    0.5000000000000000 C
