Cu4 Se2
1.0
      3.2574528000       0.0000000000       0.0000000000
     -0.0000000000       3.3100800000       0.0000000000
      0.0000000000       0.0000000000       4.8111728000
Cu Se
4 2
direct
   0.1251980000000000    0.5000000000000000    0.5592819999999999 Cu
   0.5090240000000000    0.0000000000000000    0.9961630000000000 Cu
   0.0090240000000000    0.5000000000000000    0.0038370000000000 Cu
   0.6251980000000000    0.0000000000000000    0.4407180000000000 Cu
   0.9897780000000000    0.0000000000000000    0.7563430000000000 Se
   0.4897780000000000    0.5000000000000000    0.2436570000000000 Se
