Li3 Ga14
1.0
      6.1852766358       0.0000000000       2.3677611533
      1.6289257936       5.9669295136       2.3677611533
      0.0000000000       0.0000000000       6.6229860330
Li Ga
3 14
direct
   0.1169674600000000    0.5242055799999999    0.1169674600000000 Li
   0.1169674600000000    0.1169674600000000    0.5242055799999999 Li
   0.5242055799999999    0.1169674600000000    0.1169674600000000 Li
   0.4958906700000000    0.1771590800000000    0.4958906700000000 Ga
   0.4958906700000000    0.4958906700000000    0.1771590800000000 Ga
   0.1771590800000000    0.4958906700000000    0.4958906700000000 Ga
   0.5173425699999999    0.8310730300000000    0.5173425699999999 Ga
   0.5173425699999999    0.5173425699999999    0.8310730300000000 Ga
   0.8310730300000000    0.5173425699999999    0.5173425699999999 Ga
   0.0826958300000000    0.0826958300000000    0.0826958300000000 Ga
   0.9278857600000000    0.9278857600000000    0.9278857600000000 Ga
   0.7067760400000000    0.1894413900000000    0.7067760400000000 Ga
   0.7067760400000000    0.7067760400000000    0.1894413900000000 Ga
   0.1894413900000000    0.7067760400000000    0.7067760400000000 Ga
   0.3003037300000000    0.8189773800000000    0.3003037300000000 Ga
   0.3003037300000000    0.3003037300000000    0.8189773800000000 Ga
   0.8189773800000000    0.3003037300000000    0.3003037300000000 Ga
