Zn1 Cu3
1.0
      2.1568749775       0.0000000000       6.9024101725
      1.0533232300       1.8821848585       6.9024101725
      0.0000000000       0.0000000000       7.2315537550
Zn Cu
1 3
direct
   0.0000000000000000    0.0000000000000000    0.0000000000000000 Zn
   0.2484965200000000    0.2484965200000000    0.2484965200000000 Cu
   0.5000000000000000    0.5000000000000000    0.5000000000000000 Cu
   0.7515034800000000    0.7515034800000000    0.7515034800000000 Cu
