Zn1 Cu3
1.0
      2.0299999788       0.0000000000       6.4963860447
      0.9913630400       1.7714681021       6.4963860447
      0.0000000000       0.0000000000       6.8061682400
Zn Cu
1 3
direct
   0.0000000000000000    0.0000000000000000    0.0000000000000000 Zn
   0.2484965200000000    0.2484965200000000    0.2484965200000000 Cu
   0.5000000000000000    0.5000000000000000    0.5000000000000000 Cu
   0.7515034800000000    0.7515034800000000    0.7515034800000000 Cu
