Zn1 Cu3
1.0
      2.4106249749       0.0000000000       7.7144584281
      1.1772436100       2.1036183713       7.7144584281
      0.0000000000       0.0000000000       8.0823247850
Zn Cu
1 3
direct
   0.0000000000000000    0.0000000000000000    0.0000000000000000 Zn
   0.2484965200000000    0.2484965200000000    0.2484965200000000 Cu
   0.5000000000000000    0.5000000000000000    0.5000000000000000 Cu
   0.7515034800000000    0.7515034800000000    0.7515034800000000 Cu
