Zn1 Cu3
1.0
      1.9031249801       0.0000000000       6.0903619169
      0.9294028500       1.6607513458       6.0903619169
      0.0000000000       0.0000000000       6.3807827250
Zn Cu
1 3
direct
   0.0000000000000000    0.0000000000000000    0.0000000000000000 Zn
   0.2484965200000000    0.2484965200000000    0.2484965200000000 Cu
   0.5000000000000000    0.5000000000000000    0.5000000000000000 Cu
   0.7515034800000000    0.7515034800000000    0.7515034800000000 Cu
