Zn1 Cu3
1.0
      2.2837499762       0.0000000000       7.3084343003
      1.1152834200       1.9929016149       7.3084343003
      0.0000000000       0.0000000000       7.6569392700
Zn Cu
1 3
direct
   0.0000000000000000    0.0000000000000000    0.0000000000000000 Zn
   0.2484965200000000    0.2484965200000000    0.2484965200000000 Cu
   0.5000000000000000    0.5000000000000000    0.5000000000000000 Cu
   0.7515034800000000    0.7515034800000000    0.7515034800000000 Cu
