K3 Mn1
1.0
      4.2182188244       0.0000000000       2.4353897738
      1.4060729415       3.9769748470       2.4353897738
      0.0000000000       0.0000000000       4.8707795475
K Mn
3 1
direct
   0.2500000000000000    0.2500000000000000    0.2500000000000000 K
   0.7500000000000000    0.7500000000000000    0.7500000000000000 K
   0.5000000000000000    0.5000000000000000    0.5000000000000000 K
   0.0000000000000000    0.0000000000000000    0.0000000000000000 Mn
