K3 Mn1
1.0
      4.4994334127       0.0000000000       2.5977490920
      1.4998111376       4.2421065035       2.5977490920
      0.0000000000       0.0000000000       5.1954981840
K Mn
3 1
direct
   0.2500000000000000    0.2500000000000000    0.2500000000000000 K
   0.7500000000000000    0.7500000000000000    0.7500000000000000 K
   0.5000000000000000    0.5000000000000000    0.5000000000000000 K
   0.0000000000000000    0.0000000000000000    0.0000000000000000 Mn
