K3 Mn1
1.0
      4.7806480010       0.0000000000       2.7601084103
      1.5935493337       4.5072381599       2.7601084103
      0.0000000000       0.0000000000       5.5202168205
K Mn
3 1
direct
   0.2500000000000000    0.2500000000000000    0.2500000000000000 K
   0.7500000000000000    0.7500000000000000    0.7500000000000000 K
   0.5000000000000000    0.5000000000000000    0.5000000000000000 K
   0.0000000000000000    0.0000000000000000    0.0000000000000000 Mn
