K3 Mn1
1.0
      5.0618625892       0.0000000000       2.9224677285
      1.6872875297       4.7723698164       2.9224677285
      0.0000000000       0.0000000000       5.8449354570
K Mn
3 1
direct
   0.2500000000000000    0.2500000000000000    0.2500000000000000 K
   0.7500000000000000    0.7500000000000000    0.7500000000000000 K
   0.5000000000000000    0.5000000000000000    0.5000000000000000 K
   0.0000000000000000    0.0000000000000000    0.0000000000000000 Mn
