K3 Mn1
1.0
      5.3430771775       0.0000000000       3.0848270468
      1.7810257258       5.0375014728       3.0848270468
      0.0000000000       0.0000000000       6.1696540935
K Mn
3 1
direct
   0.2500000000000000    0.2500000000000000    0.2500000000000000 K
   0.7500000000000000    0.7500000000000000    0.7500000000000000 K
   0.5000000000000000    0.5000000000000000    0.5000000000000000 K
   0.0000000000000000    0.0000000000000000    0.0000000000000000 Mn
