K3 Zr1
1.0
      4.7562264000       0.0000000000       0.0000000000
     -0.0000000000       4.7562264000       0.0000000000
      0.0000000000       0.0000000000       4.7562264000
K Zr
3 1
direct
   0.0000000000000000    0.5000000000000000    0.5000000000000000 K
   0.5000000000000000    0.0000000000000000    0.5000000000000000 K
   0.5000000000000000    0.5000000000000000    0.0000000000000000 K
   0.0000000000000000    0.0000000000000000    0.0000000000000000 Zr
