K3 Zr1
1.0
      4.4589622500       0.0000000000       0.0000000000
     -0.0000000000       4.4589622500       0.0000000000
      0.0000000000       0.0000000000       4.4589622500
K Zr
3 1
direct
   0.0000000000000000    0.5000000000000000    0.5000000000000000 K
   0.5000000000000000    0.0000000000000000    0.5000000000000000 K
   0.5000000000000000    0.5000000000000000    0.0000000000000000 K
   0.0000000000000000    0.0000000000000000    0.0000000000000000 Zr
