Li4 Ca2
1.0
      4.8445604726       0.0000000000       2.7970083392
      1.6148528675       4.5674943518       2.7970077910
      0.0000000000       0.0000000000       5.5940159880
Li Ca
4 2
direct
   0.5000000000000000    0.0000000000000000    0.5000000000000000 Li
   0.0000000000000000    0.5000000000000000    0.5000000000000000 Li
   0.5000000000000000    0.5000000000000000    0.5000000000000000 Li
   0.5000000000000000    0.5000000000000000    0.0000000000000000 Li
   0.1250000000000000    0.1250000000000000    0.1250000000000000 Ca
   0.8750000000000000    0.8750000000000000    0.8750000000000000 Ca
