Li7 Al6
1.0
     12.6052830595       0.0000000000       0.0000000000
     -6.3026419732      12.1059999022       0.0000000000
      0.0000000000       0.0000000000      41.1322087195
Li Al
7 6
direct
   0.0000000000000000    0.0000000000000000    0.5984552900000000 Li
   0.0000000000000000    0.0000000000000000    0.4015447100000000 Li
   0.6138983700000000    0.6118207400000000    0.0000000000000000 Li
   0.3861016300000000    0.3881792600000000    0.0000000000000000 Li
   0.0020776400000000    0.3881792600000000    0.0000000000000000 Li
   0.9979223600000000    0.6118207400000000    0.0000000000000000 Li
   0.0000000000000000    0.0000000000000000    0.0000000000000000 Li
   0.0000000000000000    0.0000000000000000    0.8036498600000000 Al
   0.0000000000000000    0.0000000000000000    0.1963501400000000 Al
   0.8041029900000000    0.7955870800000000    0.0000000000000000 Al
   0.1958970100000000    0.2044129200000000    0.0000000000000000 Al
   0.0085159100000000    0.2044129200000000    0.0000000000000000 Al
   0.9914840900000000    0.7955870800000000    0.0000000000000000 Al
