Li1 Ni3
1.0
      2.5454471827       0.0000000000      -2.2355277001
     -0.5215697563       2.4914386104      -2.2355277001
      0.0000000000       0.0000000000       3.3877552240
Li Ni
1 3
direct
   0.0000000000000000    0.0000000000000000    0.0000000000000000 Li
   0.7500000000000000    0.2500000000000000    0.5000000000000000 Ni
   0.2500000000000000    0.7500000000000000    0.5000000000000000 Ni
   0.5000000000000000    0.5000000000000000    0.0000000000000000 Ni
