Li1 Ni3
1.0
      2.8636280805       0.0000000000      -2.5149686626
     -0.5867659758       2.8028684367      -2.5149686626
      0.0000000000       0.0000000000       3.8112246270
Li Ni
1 3
direct
   0.0000000000000000    0.0000000000000000    0.0000000000000000 Li
   0.7500000000000000    0.2500000000000000    0.5000000000000000 Ni
   0.2500000000000000    0.7500000000000000    0.5000000000000000 Ni
   0.5000000000000000    0.5000000000000000    0.0000000000000000 Ni
