K1 Li3
1.0
      4.2874146423       0.0000000000      -4.1795910043
     -0.7624084391       4.2190825647      -4.1795910043
      0.0000000000       0.0000000000       5.9875625490
K Li
1 3
direct
   0.0000000000000000    0.0000000000000000    0.0000000000000000 K
   0.7500000000000000    0.2500000000000000    0.5000000000000000 Li
   0.2500000000000000    0.7500000000000000    0.5000000000000000 Li
   0.5000000000000000    0.5000000000000000    0.0000000000000000 Li
