K1 Li3
1.0
      3.3848010334       0.0000000000      -3.2996771086
     -0.6019013993       3.3308546563      -3.2996771086
      0.0000000000       0.0000000000       4.7270230650
K Li
1 3
direct
   0.0000000000000000    0.0000000000000000    0.0000000000000000 K
   0.7500000000000000    0.2500000000000000    0.5000000000000000 Li
   0.2500000000000000    0.7500000000000000    0.5000000000000000 Li
   0.5000000000000000    0.5000000000000000    0.0000000000000000 Li
