K1 Li3
1.0
      4.0617612401       0.0000000000      -3.9596125303
     -0.7222816791       3.9970255876      -3.9596125303
      0.0000000000       0.0000000000       5.6724276780
K Li
1 3
direct
   0.0000000000000000    0.0000000000000000    0.0000000000000000 K
   0.7500000000000000    0.2500000000000000    0.5000000000000000 Li
   0.2500000000000000    0.7500000000000000    0.5000000000000000 Li
   0.5000000000000000    0.5000000000000000    0.0000000000000000 Li
