Li6 Nb2
1.0
      4.8835444060       0.0000000000       0.0000000000
     -2.4417725049       4.2292733418       0.0000000000
      0.0000000000       0.0000000000       3.8410284500
Li Nb
6 2
direct
   0.1658790000000000    0.3317570000000000    0.2500000000000000 Li
   0.6682430000000000    0.8341210000000000    0.2500000000000000 Li
   0.1658790000000000    0.8341210000000000    0.2500000000000000 Li
   0.8341210000000000    0.6682430000000000    0.7500000000000000 Li
   0.3317570000000000    0.1658790000000000    0.7500000000000000 Li
   0.8341210000000000    0.1658790000000000    0.7500000000000000 Li
   0.3333333333333333    0.6666666666666666    0.7500000000000000 Nb
   0.6666666666666666    0.3333333333333333    0.2500000000000000 Nb
