Li1 Ni3
1.0
      3.0227185295       0.0000000000      -2.6546891438
     -0.6193640856       2.9585833498      -2.6546891438
      0.0000000000       0.0000000000       4.0229593285
Li Ni
1 3
direct
   0.0000000000000000    0.0000000000000000    0.0000000000000000 Li
   0.7500000000000000    0.2500000000000000    0.5000000000000000 Ni
   0.2500000000000000    0.7500000000000000    0.5000000000000000 Ni
   0.5000000000000000    0.5000000000000000    0.0000000000000000 Ni
