Li1 Ni3
1.0
      2.3863567338       0.0000000000      -2.0958072188
     -0.4889716465       2.3357236972      -2.0958072188
      0.0000000000       0.0000000000       3.1760205225
Li Ni
1 3
direct
   0.0000000000000000    0.0000000000000000    0.0000000000000000 Li
   0.7500000000000000    0.2500000000000000    0.5000000000000000 Ni
   0.2500000000000000    0.7500000000000000    0.5000000000000000 Ni
   0.5000000000000000    0.5000000000000000    0.0000000000000000 Ni
