Li1 Ni3
1.0
      2.7045376316       0.0000000000      -2.3752481813
     -0.5541678660       2.6471535235      -2.3752481813
      0.0000000000       0.0000000000       3.5994899255
Li Ni
1 3
direct
   0.0000000000000000    0.0000000000000000    0.0000000000000000 Li
   0.7500000000000000    0.2500000000000000    0.5000000000000000 Ni
   0.2500000000000000    0.7500000000000000    0.5000000000000000 Ni
   0.5000000000000000    0.5000000000000000    0.0000000000000000 Ni
