Mg1 Se1
1.0
      3.0907523296       0.0000000000       1.7844466845
      1.0302496394       2.9139886555       1.7844466831
      0.0000000000       0.0000000000       3.5688933765
Mg Se
1 1
direct
   0.0000000000000000    0.0000000000000000    0.0000000000000000 Mg
   0.2500000000000000    0.2500000000000000    0.2500000000000000 Se
