Mg1 Se1
1.0
      3.2725612902       0.0000000000       1.8894141365
      1.0908525594       3.0853997529       1.8894141351
      0.0000000000       0.0000000000       3.7788282810
Mg Se
1 1
direct
   0.0000000000000000    0.0000000000000000    0.0000000000000000 Mg
   0.2500000000000000    0.2500000000000000    0.2500000000000000 Se
