Mg1 Se1
1.0
      2.9089433691       0.0000000000       1.6794792324
      0.9696467195       2.7425775581       1.6794792312
      0.0000000000       0.0000000000       3.3589584720
Mg Se
1 1
direct
   0.0000000000000000    0.0000000000000000    0.0000000000000000 Mg
   0.2500000000000000    0.2500000000000000    0.2500000000000000 Se
