Mg1 Se1
1.0
      3.4543702508       0.0000000000       1.9943815885
      1.1514554793       3.2568108503       1.9943815870
      0.0000000000       0.0000000000       3.9887631855
Mg Se
1 1
direct
   0.0000000000000000    0.0000000000000000    0.0000000000000000 Mg
   0.2500000000000000    0.2500000000000000    0.2500000000000000 Se
