Mg1 Se1
1.0
      2.7271344085       0.0000000000       1.5745117804
      0.9090437995       2.5711664608       1.5745117792
      0.0000000000       0.0000000000       3.1490235675
Mg Se
1 1
direct
   0.0000000000000000    0.0000000000000000    0.0000000000000000 Mg
   0.2500000000000000    0.2500000000000000    0.2500000000000000 Se
