Cu1 C6
1.0
      3.7318470000       0.0000000000       0.0000000000
     -0.0000000000       3.4009315473      -1.8160974571
      0.0000000000       0.0000000000       4.0924418400
Cu C
1 6
direct
   0.0000000000000000    0.0000000000000000    0.0000000000000000 Cu
   0.6257890000000000    0.0000000000000000    0.0000000000000000 C
   0.3742110000000000    0.0000000000000000    0.0000000000000000 C
   0.0000000000000000    0.6320040000000000    0.5243590000000000 C
   0.0000000000000000    0.3679960000000000    0.4756410000000000 C
   0.0000000000000000    0.1076440000000000    0.4756410000000000 C
   0.0000000000000000    0.8923560000000000    0.5243590000000000 C
