Li2 C2
1.0
      2.8904498002       0.0000000000       1.4469138684
      1.2947977083       3.2110676078       1.0239615737
      0.0000000000       0.0000000000       3.6105340410
Li C
2 2
direct
   0.7606944400000000    0.7393055600000000    0.7393055600000000 Li
   0.2393055600000000    0.2606944400000000    0.2606944400000000 Li
   0.0000000000000000    0.8697440600000000    0.1302559400000000 C
   0.0000000000000000    0.1302559400000000    0.8697440600000000 C
