Li2 C2
1.0
      2.7298692558       0.0000000000       1.3665297646
      1.2228645023       3.0326749629       0.9670748196
      0.0000000000       0.0000000000       3.4099488165
Li C
2 2
direct
   0.7606944400000000    0.7393055600000000    0.7393055600000000 Li
   0.2393055600000000    0.2606944400000000    0.2606944400000000 Li
   0.0000000000000000    0.8697440600000000    0.1302559400000000 C
   0.0000000000000000    0.1302559400000000    0.8697440600000000 C
