Li1 C6
1.0
      2.7371279250       0.0000000000       0.0000000000
     -0.0000000000       2.7974345098      -1.6150994332
      0.0000000000       0.0000000000       3.2301990675
Li C
1 6
direct
   0.0000000000000000    0.0000000000000000    0.0000000000000000 Li
   0.5000000000000000    0.0000000000000000    0.3336124000000000 C
   0.5000000000000000    0.3336124000000000    0.0000000000000000 C
   0.5000000000000000    0.6663876000000000    0.6663876000000000 C
   0.5000000000000000    0.0000000000000000    0.6663876000000000 C
   0.5000000000000000    0.6663876000000000    0.0000000000000000 C
   0.5000000000000000    0.3336124000000000    0.3336124000000000 C
