Li1 C6
1.0
      2.9196031200       0.0000000000       0.0000000000
     -0.0000000000       2.9839301438      -1.7227727287
      0.0000000000       0.0000000000       3.4455456720
Li C
1 6
direct
   0.0000000000000000    0.0000000000000000    0.0000000000000000 Li
   0.5000000000000000    0.0000000000000000    0.3336124000000000 C
   0.5000000000000000    0.3336124000000000    0.0000000000000000 C
   0.5000000000000000    0.6663876000000000    0.6663876000000000 C
   0.5000000000000000    0.0000000000000000    0.6663876000000000 C
   0.5000000000000000    0.6663876000000000    0.0000000000000000 C
   0.5000000000000000    0.3336124000000000    0.3336124000000000 C
