Y1 Zn1
1.0
      2.6717748900       0.0000000000       0.0000000000
     -0.0000000000       2.6717748900       0.0000000000
      0.0000000000       0.0000000000       2.6717748900
Y Zn
1 1
direct
   0.0000000000000000    0.0000000000000000    0.0000000000000000 Y
   0.5000000000000000    0.5000000000000000    0.5000000000000000 Zn
