K2 C4
1.0
      3.4901078385       0.0000000000      -1.1823346489
     -1.7511804653       3.2419713596       0.0419121400
      0.0000000000       0.0000000000       6.5040851520
K C
2 4
direct
   0.0663380000000000    0.8163380000000000    0.2500000000000000 K
   0.9336620000000000    0.1836620000000000    0.7500000000000000 K
   0.6280090000000000    0.1223920000000000    0.0549720000000000 C
   0.3719910000000000    0.8776080000000001    0.9450280000000000 C
   0.5674200000000000    0.5730370000000000    0.4450280000000000 C
   0.4325800000000000    0.4269630000000000    0.5549720000000000 C
