K2 C4
1.0
      3.9263713183       0.0000000000      -1.3301264800
     -1.9700780234       3.6472177796       0.0471511576
      0.0000000000       0.0000000000       7.3170957960
K C
2 4
direct
   0.0663380000000000    0.8163380000000000    0.2500000000000000 K
   0.9336620000000000    0.1836620000000000    0.7500000000000000 K
   0.6280090000000000    0.1223920000000000    0.0549720000000000 C
   0.3719910000000000    0.8776080000000001    0.9450280000000000 C
   0.5674200000000000    0.5730370000000000    0.4450280000000000 C
   0.4325800000000000    0.4269630000000000    0.5549720000000000 C
