Li2 La6
1.0
      6.6377613870       0.0000000000       0.0000000000
     -3.3188810828       5.7484697607       0.0000000000
      0.0000000000       0.0000000000       4.9080897000
Li La
2 6
direct
   0.6666666666666666    0.3333333333333333    0.2500000000000000 Li
   0.3333333333333333    0.6666666666666666    0.7500000000000000 Li
   0.8249520000000000    0.1750480000000000    0.7500000000000000 La
   0.3500950000000000    0.1750480000000000    0.7500000000000000 La
   0.8249520000000000    0.6499050000000000    0.7500000000000000 La
   0.1750480000000000    0.3500950000000000    0.2500000000000000 La
   0.6499050000000000    0.8249520000000000    0.2500000000000000 La
   0.1750480000000000    0.8249520000000000    0.2500000000000000 La
