Li1 Pd7
1.0
      4.0451628511       0.0000000000       2.3354758610
      1.3483876170       3.8138161107       2.3354758610
      0.0000000000       0.0000000000       4.6709517220
Li Pd
1 7
direct
   0.0000000000000000    0.0000000000000000    0.0000000000000000 Li
   0.5000000000000000    0.5000000000000000    0.5000000000000000 Pd
   0.5000000000000000    0.0000000000000000    0.0000000000000000 Pd
   0.5000000000000000    0.0000000000000000    0.5000000000000000 Pd
   0.5000000000000000    0.5000000000000000    0.0000000000000000 Pd
   0.0000000000000000    0.5000000000000000    0.5000000000000000 Pd
   0.0000000000000000    0.5000000000000000    0.0000000000000000 Pd
   0.0000000000000000    0.0000000000000000    0.5000000000000000 Pd
