Zn2 Pt2
1.0
      3.1451083920       0.0000000000       0.0000000000
     -0.0000000000       3.6285561630       0.0000000000
      0.0000000000       0.0000000000       3.6285561630
Zn Pt
2 2
direct
   0.5000000000000000    0.5000000000000000    0.0000000000000000 Zn
   0.5000000000000000    0.0000000000000000    0.5000000000000000 Zn
   0.0000000000000000    0.5000000000000000    0.5000000000000000 Pt
   0.0000000000000000    0.0000000000000000    0.0000000000000000 Pt
