Zn2 Pt2
1.0
      3.3198366360       0.0000000000       0.0000000000
     -0.0000000000       3.8301426165       0.0000000000
      0.0000000000       0.0000000000       3.8301426165
Zn Pt
2 2
direct
   0.5000000000000000    0.5000000000000000    0.0000000000000000 Zn
   0.5000000000000000    0.0000000000000000    0.5000000000000000 Zn
   0.0000000000000000    0.5000000000000000    0.5000000000000000 Pt
   0.0000000000000000    0.0000000000000000    0.0000000000000000 Pt
