Zn2 Pt2
1.0
      2.7956519040       0.0000000000       0.0000000000
     -0.0000000000       3.2253832560       0.0000000000
      0.0000000000       0.0000000000       3.2253832560
Zn Pt
2 2
direct
   0.5000000000000000    0.5000000000000000    0.0000000000000000 Zn
   0.5000000000000000    0.0000000000000000    0.5000000000000000 Zn
   0.0000000000000000    0.5000000000000000    0.5000000000000000 Pt
   0.0000000000000000    0.0000000000000000    0.0000000000000000 Pt
