Fe1 Cu3
1.0
      2.3519537600       0.0000000000       0.0000000000
     -0.7470112031       2.2301705656       0.0000000000
      0.0000000000       0.0000000000       7.8197929500
Fe Cu
1 3
direct
   0.0000000000000000    0.0000000000000000    0.0000000000000000 Fe
   0.5000000000000000    0.5000000000000000    0.7492259999999999 Cu
   0.0000000000000000    0.0000000000000000    0.5000000000000000 Cu
   0.5000000000000000    0.5000000000000000    0.2507740000000000 Cu
