Fe1 Cu3
1.0
      2.2281667200       0.0000000000       0.0000000000
     -0.7076948240       2.1127931674       0.0000000000
      0.0000000000       0.0000000000       7.4082249000
Fe Cu
1 3
direct
   0.0000000000000000    0.0000000000000000    0.0000000000000000 Fe
   0.5000000000000000    0.5000000000000000    0.7492259999999999 Cu
   0.0000000000000000    0.0000000000000000    0.5000000000000000 Cu
   0.5000000000000000    0.5000000000000000    0.2507740000000000 Cu
