Fe1 Cu3
1.0
      1.9805926400       0.0000000000       0.0000000000
     -0.6290620657       1.8780383710       0.0000000000
      0.0000000000       0.0000000000       6.5850888000
Fe Cu
1 3
direct
   0.0000000000000000    0.0000000000000000    0.0000000000000000 Fe
   0.5000000000000000    0.5000000000000000    0.7492259999999999 Cu
   0.0000000000000000    0.0000000000000000    0.5000000000000000 Cu
   0.5000000000000000    0.5000000000000000    0.2507740000000000 Cu
