Fe1 Cu3
1.0
      2.1043796800       0.0000000000       0.0000000000
     -0.6683784448       1.9954157692       0.0000000000
      0.0000000000       0.0000000000       6.9966568500
Fe Cu
1 3
direct
   0.0000000000000000    0.0000000000000000    0.0000000000000000 Fe
   0.5000000000000000    0.5000000000000000    0.7492259999999999 Cu
   0.0000000000000000    0.0000000000000000    0.5000000000000000 Cu
   0.5000000000000000    0.5000000000000000    0.2507740000000000 Cu
