Fe1 Cu3
1.0
      1.8568056000       0.0000000000       0.0000000000
     -0.5897456866       1.7606609728       0.0000000000
      0.0000000000       0.0000000000       6.1735207500
Fe Cu
1 3
direct
   0.0000000000000000    0.0000000000000000    0.0000000000000000 Fe
   0.5000000000000000    0.5000000000000000    0.7492259999999999 Cu
   0.0000000000000000    0.0000000000000000    0.5000000000000000 Cu
   0.5000000000000000    0.5000000000000000    0.2507740000000000 Cu
