Mn1 I2
1.0
      3.3348651840       0.0000000000       0.0000000000
     -1.6674325903       2.8880774605       0.0000000000
      0.0000000000       0.0000000000       5.7169596480
Mn I
1 2
direct
   0.0000000000000000    0.0000000000000000    0.0000000000000000 Mn
   0.3333333333333333    0.6666666666666666    0.2308854000000000 I
   0.6666666666666666    0.3333333333333333    0.7691146000000000 I
