Mn1 I2
1.0
      3.7517233320       0.0000000000       0.0000000000
     -1.8758616640       3.2490871430       0.0000000000
      0.0000000000       0.0000000000       6.4315796040
Mn I
1 2
direct
   0.0000000000000000    0.0000000000000000    0.0000000000000000 Mn
   0.3333333333333333    0.6666666666666666    0.2308854000000000 I
   0.6666666666666666    0.3333333333333333    0.7691146000000000 I
