Mn1 I2
1.0
      3.1264361100       0.0000000000       0.0000000000
     -1.5632180534       2.7075726192       0.0000000000
      0.0000000000       0.0000000000       5.3596496700
Mn I
1 2
direct
   0.0000000000000000    0.0000000000000000    0.0000000000000000 Mn
   0.3333333333333333    0.6666666666666666    0.2308854000000000 I
   0.6666666666666666    0.3333333333333333    0.7691146000000000 I
