Mn1 I2
1.0
      3.5432942580       0.0000000000       0.0000000000
     -1.7716471272       3.0685823018       0.0000000000
      0.0000000000       0.0000000000       6.0742696260
Mn I
1 2
direct
   0.0000000000000000    0.0000000000000000    0.0000000000000000 Mn
   0.3333333333333333    0.6666666666666666    0.2308854000000000 I
   0.6666666666666666    0.3333333333333333    0.7691146000000000 I
