K2 I2
1.0
      3.7062763800       0.0000000000       0.0000000000
     -1.7898939854       3.2454220259       0.0000000000
      0.0000000000       0.0000000000       6.5074417500
K I
2 2
direct
   0.5000000000000000    0.5000000000000000    0.5000000000000000 K
   0.5000000000000000    0.5000000000000000    0.0000000000000000 K
   0.8402300000000000    0.1597700000000000    0.2500000000000000 I
   0.1597700000000000    0.8402300000000000    0.7500000000000000 I
