K2 I2
1.0
      3.9533614720       0.0000000000       0.0000000000
     -1.9092202511       3.4617834943       0.0000000000
      0.0000000000       0.0000000000       6.9412712000
K I
2 2
direct
   0.5000000000000000    0.5000000000000000    0.5000000000000000 K
   0.5000000000000000    0.5000000000000000    0.0000000000000000 K
   0.8402300000000000    0.1597700000000000    0.2500000000000000 I
   0.1597700000000000    0.8402300000000000    0.7500000000000000 I
