K2 I2
1.0
      4.6946167480       0.0000000000       0.0000000000
     -2.2671990481       4.1108678994       0.0000000000
      0.0000000000       0.0000000000       8.2427595500
K I
2 2
direct
   0.5000000000000000    0.5000000000000000    0.5000000000000000 K
   0.5000000000000000    0.5000000000000000    0.0000000000000000 K
   0.8402300000000000    0.1597700000000000    0.2500000000000000 I
   0.1597700000000000    0.8402300000000000    0.7500000000000000 I
