K2 I2
1.0
      4.4475316560       0.0000000000       0.0000000000
     -2.1478727824       3.8945064311       0.0000000000
      0.0000000000       0.0000000000       7.8089301000
K I
2 2
direct
   0.5000000000000000    0.5000000000000000    0.5000000000000000 K
   0.5000000000000000    0.5000000000000000    0.0000000000000000 K
   0.8402300000000000    0.1597700000000000    0.2500000000000000 I
   0.1597700000000000    0.8402300000000000    0.7500000000000000 I
