K3 Al1
1.0
      5.4832803000       0.0000000000       0.0000000000
     -0.0000000000       5.4832803000       0.0000000000
      0.0000000000       0.0000000000       5.4832803000
K Al
3 1
direct
   0.0000000000000000    0.5000000000000000    0.5000000000000000 K
   0.5000000000000000    0.0000000000000000    0.5000000000000000 K
   0.5000000000000000    0.5000000000000000    0.0000000000000000 K
   0.0000000000000000    0.0000000000000000    0.0000000000000000 Al
