K3 Al1
1.0
      4.6174992000       0.0000000000       0.0000000000
     -0.0000000000       4.6174992000       0.0000000000
      0.0000000000       0.0000000000       4.6174992000
K Al
3 1
direct
   0.0000000000000000    0.5000000000000000    0.5000000000000000 K
   0.5000000000000000    0.0000000000000000    0.5000000000000000 K
   0.5000000000000000    0.5000000000000000    0.0000000000000000 K
   0.0000000000000000    0.0000000000000000    0.0000000000000000 Al
