Li3 In1
1.0
      3.0454968526       0.0000000000      -2.7762732295
     -0.5937696956       2.9870535027      -2.7762732295
      0.0000000000       0.0000000000       4.1210125120
Li In
3 1
direct
   0.7500010000000000    0.2500000000000000    0.5000000000000000 Li
   0.2500000000000000    0.7500010000000000    0.5000000000000000 Li
   0.5000000000000000    0.5000000000000000    0.0000000000000000 Li
   0.0000000000000000    0.0000000000000000    0.0000000000000000 In
