Li3 In1
1.0
      3.6165275125       0.0000000000      -3.2968244600
     -0.7051015136       3.5471260345      -3.2968244600
      0.0000000000       0.0000000000       4.8937023580
Li In
3 1
direct
   0.7500010000000000    0.2500000000000000    0.5000000000000000 Li
   0.2500000000000000    0.7500010000000000    0.5000000000000000 Li
   0.5000000000000000    0.5000000000000000    0.0000000000000000 Li
   0.0000000000000000    0.0000000000000000    0.0000000000000000 In
