Li3 In1
1.0
      3.2358404059       0.0000000000      -2.9497903063
     -0.6308803016       3.1737443466      -2.9497903063
      0.0000000000       0.0000000000       4.3785757940
Li In
3 1
direct
   0.7500010000000000    0.2500000000000000    0.5000000000000000 Li
   0.2500000000000000    0.7500010000000000    0.5000000000000000 Li
   0.5000000000000000    0.5000000000000000    0.0000000000000000 Li
   0.0000000000000000    0.0000000000000000    0.0000000000000000 In
