Zn2 O2
1.0
      2.4280133850       0.0000000000       0.0000000000
     -1.2140063186       2.1027212195       0.0000000000
      0.0000000000       0.0000000000       3.9165459750
Zn O
2 2
direct
   0.6666666666666666    0.3333333333333333    0.5005917000000000 Zn
   0.3333333333333333    0.6666666666666666    0.0005917000000000 Zn
   0.6666666666666666    0.3333333333333333    0.8797183000000000 O
   0.3333333333333333    0.6666666666666666    0.3797183000000000 O
