Mg4 Cu2
1.0
      4.5500126014       0.0000000000      -1.3996838166
     -1.7253930322       3.7157301217      -2.4244789144
      0.0000000000       0.0000000000       4.7604337470
Mg Cu
4 2
direct
   0.4890280000000000    0.8277540000000000    0.6612740000000000 Mg
   0.5109720000000000    0.1722460000000000    0.3387260000000000 Mg
   0.1664800000000000    0.3277540000000000    0.8387260000000000 Mg
   0.8335200000000000    0.6722460000000000    0.1612740000000000 Mg
   0.0000000000000000    0.2500000000000000    0.2500000000000000 Cu
   0.0000000000000000    0.7500000000000000    0.7500000000000000 Cu
