Mg4 Cu2
1.0
      4.8027910793       0.0000000000      -1.4774440287
     -1.8212482007       3.9221595729      -2.5591721875
      0.0000000000       0.0000000000       5.0249022885
Mg Cu
4 2
direct
   0.4890280000000000    0.8277540000000000    0.6612740000000000 Mg
   0.5109720000000000    0.1722460000000000    0.3387260000000000 Mg
   0.1664800000000000    0.3277540000000000    0.8387260000000000 Mg
   0.8335200000000000    0.6722460000000000    0.1612740000000000 Mg
   0.0000000000000000    0.2500000000000000    0.2500000000000000 Cu
   0.0000000000000000    0.7500000000000000    0.7500000000000000 Cu
