Mg4 Cu2
1.0
      3.7916771678       0.0000000000      -1.1664031805
     -1.4378275268       3.0964417681      -2.0203990954
      0.0000000000       0.0000000000       3.9670281225
Mg Cu
4 2
direct
   0.4890280000000000    0.8277540000000000    0.6612740000000000 Mg
   0.5109720000000000    0.1722460000000000    0.3387260000000000 Mg
   0.1664800000000000    0.3277540000000000    0.8387260000000000 Mg
   0.8335200000000000    0.6722460000000000    0.1612740000000000 Mg
   0.0000000000000000    0.2500000000000000    0.2500000000000000 Cu
   0.0000000000000000    0.7500000000000000    0.7500000000000000 Cu
