Mg4 Cu2
1.0
      4.2972341236       0.0000000000      -1.3219236046
     -1.6295378637       3.5093006705      -2.2897856414
      0.0000000000       0.0000000000       4.4959652055
Mg Cu
4 2
direct
   0.4890280000000000    0.8277540000000000    0.6612740000000000 Mg
   0.5109720000000000    0.1722460000000000    0.3387260000000000 Mg
   0.1664800000000000    0.3277540000000000    0.8387260000000000 Mg
   0.8335200000000000    0.6722460000000000    0.1612740000000000 Mg
   0.0000000000000000    0.2500000000000000    0.2500000000000000 Cu
   0.0000000000000000    0.7500000000000000    0.7500000000000000 Cu
