Ca8 Mg4
1.0
      4.4065049175       0.0000000000       0.0000000000
     -0.0000000000       2.8284175725       0.0000000000
      0.0000000000       0.0000000000      14.4163539600
Ca Mg
8 4
direct
   0.0000000000000000    0.0000000000000000    0.9974977100000000 Ca
   0.0000000000000000    0.5000000000000000    0.1693417000000000 Ca
   0.0000000000000000    0.0000000000000000    0.3342413700000000 Ca
   0.5000000000000000    0.5000000000000000    0.0551937900000000 Ca
   0.0000000000000000    0.5000000000000000    0.4974977100000000 Ca
   0.0000000000000000    0.0000000000000000    0.6693417000000000 Ca
   0.0000000000000000    0.5000000000000000    0.8342413700000000 Ca
   0.5000000000000000    0.0000000000000000    0.5551937900000000 Ca
   0.5000000000000000    0.5000000000000000    0.3875958100000000 Mg
   0.5000000000000000    0.0000000000000000    0.2227966200000000 Mg
   0.5000000000000000    0.0000000000000000    0.8875958100000000 Mg
   0.5000000000000000    0.5000000000000000    0.7227966200000000 Mg
