Li1 Pt7
1.0
      4.0601410481       0.0000000000       2.3441296988
      1.3533828549       3.8279399048       2.3441278319
      0.0000000000       0.0000000000       4.6882529195
Li Pt
1 7
direct
   0.5000000000000000    0.5000000000000000    0.5000000000000000 Li
   0.0000000000000000    0.0000000000000000    0.0000000000000000 Pt
   0.5000000000000000    0.0000000000000000    0.0000000000000000 Pt
   0.0000000000000000    0.0000000000000000    0.5000000000000000 Pt
   0.5000000000000000    0.5000000000000000    0.0000000000000000 Pt
   0.0000000000000000    0.5000000000000000    0.5000000000000000 Pt
   0.0000000000000000    0.5000000000000000    0.0000000000000000 Pt
   0.5000000000000000    0.0000000000000000    0.5000000000000000 Pt
