Li5 Mg1
1.0
      7.2788182740       0.0000000000       0.0000000000
     -6.7587299536       2.7019927610       0.0000000000
      0.0000000000       0.0000000000       4.5405937710
Li Mg
5 1
direct
   0.0019206300000000    0.9980793700000000    0.5000000000000000 Li
   0.6676519800000000    0.3323480200000000    0.5000000000000000 Li
   0.3334427700000000    0.6665572300000000    0.5000000000000000 Li
   0.5545568000000000    0.4454432000000000    0.0000000000000000 Li
   0.8885785100000000    0.1114214900000000    0.0000000000000000 Li
   0.2205073200000000    0.7794926800000000    0.0000000000000000 Mg
