K3 Th1
1.0
      4.8145560000       0.0000000000       0.0000000000
     -0.0000000000       4.8145560000       0.0000000000
      0.0000000000       0.0000000000       4.8145560000
K Th
3 1
direct
   0.0000000000000000    0.5000000000000000    0.5000000000000000 K
   0.5000000000000000    0.0000000000000000    0.5000000000000000 K
   0.5000000000000000    0.5000000000000000    0.0000000000000000 K
   0.0000000000000000    0.0000000000000000    0.0000000000000000 Th
