K3 Th1
1.0
      5.1154657500       0.0000000000       0.0000000000
     -0.0000000000       5.1154657500       0.0000000000
      0.0000000000       0.0000000000       5.1154657500
K Th
3 1
direct
   0.0000000000000000    0.5000000000000000    0.5000000000000000 K
   0.5000000000000000    0.0000000000000000    0.5000000000000000 K
   0.5000000000000000    0.5000000000000000    0.0000000000000000 K
   0.0000000000000000    0.0000000000000000    0.0000000000000000 Th
