Li1 Br1
1.0
      2.8344108686       0.0000000000       1.6364488041
      0.9448042052       2.6723088303       1.6364488065
      0.0000000000       0.0000000000       3.2728958620
Li Br
1 1
direct
   0.0000000000000000    0.0000000000000000    0.0000000000000000 Li
   0.5000000000000000    0.5000000000000000    0.5000000000000000 Br
