Li1 Br1
1.0
      2.5009507664       0.0000000000       1.4439254153
      0.8336507693       2.3579195562       1.4439254175
      0.0000000000       0.0000000000       2.8878492900
Li Br
1 1
direct
   0.0000000000000000    0.0000000000000000    0.0000000000000000 Li
   0.5000000000000000    0.5000000000000000    0.5000000000000000 Br
