Li2 Fe2
1.0
      2.1385404000       0.0000000000       0.0000000000
     -1.0692701995       4.0746977992       0.0000000000
      0.0000000000       0.0000000000       4.1041287000
Li Fe
2 2
direct
   0.0000000000000000    0.0000000000000000    0.0000000000000000 Li
   0.0000000000000000    0.0000000000000000    0.5000000000000000 Li
   0.2566430000000000    0.5132850000000000    0.2500000000000000 Fe
   0.7433570000000000    0.4867140000000000    0.7500000000000000 Fe
