Zn1 Cu1
1.0
      2.0537917275       0.0000000000       0.0000000000
     -0.0006394082       2.0537916280       0.0000000000
      0.0000000000       0.0000000000       2.5026627975
Zn Cu
1 1
direct
   0.5000000000000000    0.5000000000000000    0.5000000000000000 Zn
   0.0000000000000000    0.0000000000000000    0.0000000000000000 Cu
