Zn1 Cu1
1.0
      2.6014695215       0.0000000000       0.0000000000
     -0.0008099171       2.6014693954       0.0000000000
      0.0000000000       0.0000000000       3.1700395435
Zn Cu
1 1
direct
   0.5000000000000000    0.5000000000000000    0.5000000000000000 Zn
   0.0000000000000000    0.0000000000000000    0.0000000000000000 Cu
