Zn1 Cu1
1.0
      2.3276306245       0.0000000000       0.0000000000
     -0.0007246627       2.3276305117       0.0000000000
      0.0000000000       0.0000000000       2.8363511705
Zn Cu
1 1
direct
   0.5000000000000000    0.5000000000000000    0.5000000000000000 Zn
   0.0000000000000000    0.0000000000000000    0.0000000000000000 Cu
