Zn1 Cu1
1.0
      2.4645500730       0.0000000000       0.0000000000
     -0.0007672899       2.4645499536       0.0000000000
      0.0000000000       0.0000000000       3.0031953570
Zn Cu
1 1
direct
   0.5000000000000000    0.5000000000000000    0.5000000000000000 Zn
   0.0000000000000000    0.0000000000000000    0.0000000000000000 Cu
