Cu1 Te2
1.0
      3.3945524511       0.0000000000       0.0000782766
     -1.6969985603       2.9399288123      -0.0000809948
      0.0000000000       0.0000000000       4.3556613155
Cu Te
1 2
direct
   0.0000006900000000    0.0000007600000000    0.0000010900000000 Cu
   0.6666666666666666    0.3333333333333333    0.7266580500000001 Te
   0.3333333333333333    0.6666666666666666    0.2733408600000000 Te
