Cu1 Te2
1.0
      3.5942320070       0.0000000000       0.0000828811
     -1.7968220051       3.1128658012      -0.0000857592
      0.0000000000       0.0000000000       4.6118766870
Cu Te
1 2
direct
   0.0000006900000000    0.0000007600000000    0.0000010900000000 Cu
   0.6666666666666666    0.3333333333333333    0.7266580500000001 Te
   0.3333333333333333    0.6666666666666666    0.2733408600000000 Te
