Er6 Mn23
1.0
      5.8583064675       0.0000000000       3.3822948160
      1.9527688225       5.5232643059       3.3822948160
      0.0000000000       0.0000000000       6.7645896320
Er Mn
6 23
direct
   0.7954040000000000    0.7954040000000000    0.2045960000000000 Er
   0.2045960000000000    0.7954040000000000    0.2045960000000000 Er
   0.7954040000000000    0.2045960000000000    0.2045960000000000 Er
   0.2045960000000000    0.2045960000000000    0.7954040000000000 Er
   0.7954040000000000    0.2045960000000000    0.7954040000000000 Er
   0.2045960000000000    0.7954040000000000    0.7954040000000000 Er
   0.5000000000000000    0.5000000000000000    0.5000000000000000 Mn
   0.0000000000000000    0.0000000000000000    0.5000000000000000 Mn
   0.5000000000000000    0.0000000000000000    0.5000000000000000 Mn
   0.0000000000000000    0.5000000000000000    0.5000000000000000 Mn
   0.5000000000000000    0.5000000000000000    0.0000000000000000 Mn
   0.0000000000000000    0.5000000000000000    0.0000000000000000 Mn
   0.5000000000000000    0.0000000000000000    0.0000000000000000 Mn
   0.6216790000000000    0.6216790000000000    0.1349620000000000 Mn
   0.6216790000000000    0.1349620000000000    0.6216790000000000 Mn
   0.1349620000000000    0.6216790000000000    0.6216790000000000 Mn
   0.6216790000000000    0.6216790000000000    0.6216790000000000 Mn
   0.3783210000000000    0.3783210000000000    0.8650380000000000 Mn
   0.3783210000000000    0.8650380000000000    0.3783210000000000 Mn
   0.8650380000000000    0.3783210000000000    0.3783210000000000 Mn
   0.3783210000000000    0.3783210000000000    0.3783210000000000 Mn
   0.8230070000000000    0.8230070000000000    0.5309800000000000 Mn
   0.8230070000000000    0.5309800000000000    0.8230070000000000 Mn
   0.5309800000000000    0.8230070000000000    0.8230070000000000 Mn
   0.8230070000000000    0.8230070000000000    0.8230070000000000 Mn
   0.1769930000000000    0.1769930000000000    0.4690200000000000 Mn
   0.1769930000000000    0.4690200000000000    0.1769930000000000 Mn
   0.4690200000000000    0.1769930000000000    0.1769930000000000 Mn
   0.1769930000000000    0.1769930000000000    0.1769930000000000 Mn
