Cu1 Au3
1.0
      3.6116114940       0.0000000000       0.0000000000
     -0.0000000000       3.6116114940       0.0000000000
      0.0000000000       0.0000000000       3.6116114940
Cu Au
1 3
direct
   0.0000000000000000    0.0000000000000000    0.0000000000000000 Cu
   0.5000000000000000    0.5000000000000000    0.0000000000000000 Au
   0.5000000000000000    0.0000000000000000    0.5000000000000000 Au
   0.0000000000000000    0.5000000000000000    0.5000000000000000 Au
