K3 Pm1
1.0
      4.3150688249       0.0000000000      -4.5886590559
     -0.6778061314       4.2615018259      -4.5886590559
      0.0000000000       0.0000000000       6.2988579040
K Pm
3 1
direct
   0.7500000000000000    0.2500000000000000    0.5000000000000000 K
   0.2500000000000000    0.7500000000000000    0.5000000000000000 K
   0.5000000000000000    0.5000000000000000    0.0000000000000000 K
   0.0000000000000000    0.0000000000000000    0.0000000000000000 Pm
