K3 Pm1
1.0
      4.5847606265       0.0000000000      -4.8754502468
     -0.7201690146       4.5278456900      -4.8754502468
      0.0000000000       0.0000000000       6.6925365230
K Pm
3 1
direct
   0.7500000000000000    0.2500000000000000    0.5000000000000000 K
   0.2500000000000000    0.7500000000000000    0.5000000000000000 K
   0.5000000000000000    0.5000000000000000    0.0000000000000000 K
   0.0000000000000000    0.0000000000000000    0.0000000000000000 Pm
