K3 Pm1
1.0
      4.0453770234       0.0000000000      -4.3018678649
     -0.6354432482       3.9951579618      -4.3018678649
      0.0000000000       0.0000000000       5.9051792850
K Pm
3 1
direct
   0.7500000000000000    0.2500000000000000    0.5000000000000000 K
   0.2500000000000000    0.7500000000000000    0.5000000000000000 K
   0.5000000000000000    0.5000000000000000    0.0000000000000000 K
   0.0000000000000000    0.0000000000000000    0.0000000000000000 Pm
