K3 Pm1
1.0
      4.8544524280       0.0000000000      -5.1622414378
     -0.7625318978       4.7941895541      -5.1622414378
      0.0000000000       0.0000000000       7.0862151420
K Pm
3 1
direct
   0.7500000000000000    0.2500000000000000    0.5000000000000000 K
   0.2500000000000000    0.7500000000000000    0.5000000000000000 K
   0.5000000000000000    0.5000000000000000    0.0000000000000000 K
   0.0000000000000000    0.0000000000000000    0.0000000000000000 Pm
