K3 Pm1
1.0
      5.1241442296       0.0000000000      -5.4490326288
     -0.8048947810       5.0605334183      -5.4490326288
      0.0000000000       0.0000000000       7.4798937610
K Pm
3 1
direct
   0.7500000000000000    0.2500000000000000    0.5000000000000000 K
   0.2500000000000000    0.7500000000000000    0.5000000000000000 K
   0.5000000000000000    0.5000000000000000    0.0000000000000000 K
   0.0000000000000000    0.0000000000000000    0.0000000000000000 Pm
