Li6 Rh2
1.0
      4.2355614400       0.0000000000       0.0000000000
     -2.1177813416       3.6681034474       0.0000000000
      0.0000000000       0.0000000000       3.5495469360
Li Rh
6 2
direct
   0.1754870700000000    0.3509731300000000    0.2500000000000000 Li
   0.6490268700000000    0.8245129300000000    0.2500000000000000 Li
   0.1754870700000000    0.8245129300000000    0.2500000000000000 Li
   0.8245129300000000    0.6490268700000000    0.7500000000000000 Li
   0.3509731300000000    0.1754870700000000    0.7500000000000000 Li
   0.8245129300000000    0.1754870700000000    0.7500000000000000 Li
   0.3333333333333333    0.6666666666666666    0.7500000000000000 Rh
   0.6666666666666666    0.3333333333333333    0.2500000000000000 Rh
