Cu3 Sb1
1.0
      3.4313147992       0.0000000000       1.9810705230
      1.1437715997       3.2350746172       1.9810705230
      0.0000000000       0.0000000000       3.9621410460
Cu Sb
3 1
direct
   0.5000000000000000    0.5000000000000000    0.5000000000000000 Cu
   0.7500000000000000    0.7500000000000000    0.7500000000000000 Cu
   0.2500000000000000    0.2500000000000000    0.2500000000000000 Cu
   0.0000000000000000    0.0000000000000000    0.0000000000000000 Sb
