Cu3 Sb1
1.0
      3.2406861993       0.0000000000       1.8710110495
      1.0802287331       3.0553482496       1.8710110495
      0.0000000000       0.0000000000       3.7420220990
Cu Sb
3 1
direct
   0.5000000000000000    0.5000000000000000    0.5000000000000000 Cu
   0.7500000000000000    0.7500000000000000    0.7500000000000000 Cu
   0.2500000000000000    0.2500000000000000    0.2500000000000000 Cu
   0.0000000000000000    0.0000000000000000    0.0000000000000000 Sb
