Cu3 Sb1
1.0
      2.8594289993       0.0000000000       1.6508921025
      0.9531429998       2.6958955143       1.6508921025
      0.0000000000       0.0000000000       3.3017842050
Cu Sb
3 1
direct
   0.5000000000000000    0.5000000000000000    0.5000000000000000 Cu
   0.7500000000000000    0.7500000000000000    0.7500000000000000 Cu
   0.2500000000000000    0.2500000000000000    0.2500000000000000 Cu
   0.0000000000000000    0.0000000000000000    0.0000000000000000 Sb
