Cu3 Sb1
1.0
      3.6219433992       0.0000000000       2.0911299965
      1.2073144664       3.4148009848       2.0911299965
      0.0000000000       0.0000000000       4.1822599930
Cu Sb
3 1
direct
   0.5000000000000000    0.5000000000000000    0.5000000000000000 Cu
   0.7500000000000000    0.7500000000000000    0.7500000000000000 Cu
   0.2500000000000000    0.2500000000000000    0.2500000000000000 Cu
   0.0000000000000000    0.0000000000000000    0.0000000000000000 Sb
