Cu3 Sb1
1.0
      3.0500575993       0.0000000000       1.7609515760
      1.0166858664       2.8756218820       1.7609515760
      0.0000000000       0.0000000000       3.5219031520
Cu Sb
3 1
direct
   0.5000000000000000    0.5000000000000000    0.5000000000000000 Cu
   0.7500000000000000    0.7500000000000000    0.7500000000000000 Cu
   0.2500000000000000    0.2500000000000000    0.2500000000000000 Cu
   0.0000000000000000    0.0000000000000000    0.0000000000000000 Sb
