K3 Hf1
1.0
      4.9194659500       0.0000000000       0.0000000000
     -0.0000000000       4.9194659500       0.0000000000
      0.0000000000       0.0000000000       4.9194659500
K Hf
3 1
direct
   0.0000000000000000    0.5000000000000000    0.5000000000000000 K
   0.5000000000000000    0.5000000000000000    0.0000000000000000 K
   0.5000000000000000    0.0000000000000000    0.5000000000000000 K
   0.0000000000000000    0.0000000000000000    0.0000000000000000 Hf
