K3 Hg11
1.0
      4.6671704417       0.0000000000       1.2792888785
      1.6500405874       8.4403472693       3.1333857590
      0.0000000000       0.0000000000       9.1531523305
K Hg
3 11
direct
   0.6925709700000000    0.3074290300000000    0.3074290300000000 K
   0.3074290300000000    0.6925709700000000    0.6925709700000000 K
   0.0000000000000000    0.0000000000000000    0.0000000000000000 K
   0.8625164400000001    0.4219114900000000    0.8530556400000000 Hg
   0.6649546100000000    0.9699025600000000    0.7001882200000000 Hg
   0.3350453900000000    0.0300974400000000    0.2998117800000000 Hg
   0.3350453900000000    0.2998117800000000    0.0300974400000000 Hg
   0.6649546100000000    0.7001882200000000    0.9699025600000000 Hg
   0.5000000000000000    0.6998700600000000    0.3001299400000000 Hg
   0.5000000000000000    0.3001299400000000    0.6998700600000000 Hg
   0.0000000000000000    0.5000000000000000    0.5000000000000000 Hg
   0.1374835600000000    0.5780885100000001    0.1469443600000000 Hg
   0.1374835600000000    0.1469443600000000    0.5780885100000001 Hg
   0.8625164400000001    0.8530556400000000    0.4219114900000000 Hg
