Li2 Mg2
1.0
      3.8614389261       0.0000000000       1.8259699913
      3.0316029721       2.3916718002       1.8259699913
      0.0000000000       0.0000000000       3.6745914300
Li Mg
2 2
direct
   0.6332994800000000    0.6332994800000000    0.6164588100000000 Li
   0.3667005200000000    0.3667005200000000    0.3835411900000000 Li
   0.8846043800000000    0.8846043800000000    0.8645454700000000 Mg
   0.1153956200000000    0.1153956200000000    0.1354545300000000 Mg
