Li2 Mg2
1.0
      4.1188681879       0.0000000000       1.9477013240
      3.2337098369       2.5511165869       1.9477013240
      0.0000000000       0.0000000000       3.9195641920
Li Mg
2 2
direct
   0.6332994800000000    0.6332994800000000    0.6164588100000000 Li
   0.3667005200000000    0.3667005200000000    0.3835411900000000 Li
   0.8846043800000000    0.8846043800000000    0.8645454700000000 Mg
   0.1153956200000000    0.1153956200000000    0.1354545300000000 Mg
