Mn1 Pt1
1.0
      1.9280544058       0.0000000000       2.8428753374
      0.8730984958       1.7190383382       2.8428753374
      0.0000000000       0.0000000000       3.4350159075
Mn Pt
1 1
direct
   0.0000000000000000    0.0000000000000000    0.0000000000000000 Mn
   0.5000000000000000    0.5000000000000000    0.5000000000000000 Pt
