Mn1 Pt1
1.0
      2.1851283265       0.0000000000       3.2219253824
      0.9895116286       1.9482434500       3.2219253824
      0.0000000000       0.0000000000       3.8930180285
Mn Pt
1 1
direct
   0.0000000000000000    0.0000000000000000    0.0000000000000000 Mn
   0.5000000000000000    0.5000000000000000    0.5000000000000000 Pt
