Mn1 Pt1
1.0
      2.0565913661       0.0000000000       3.0324003599
      0.9313050622       1.8336408941       3.0324003599
      0.0000000000       0.0000000000       3.6640169680
Mn Pt
1 1
direct
   0.0000000000000000    0.0000000000000000    0.0000000000000000 Mn
   0.5000000000000000    0.5000000000000000    0.5000000000000000 Pt
