Mn1 Pt1
1.0
      2.4422022473       0.0000000000       3.6009754274
      1.1059247613       2.1774485617       3.6009754274
      0.0000000000       0.0000000000       4.3510201495
Mn Pt
1 1
direct
   0.0000000000000000    0.0000000000000000    0.0000000000000000 Mn
   0.5000000000000000    0.5000000000000000    0.5000000000000000 Pt
