Mn1 Pt1
1.0
      2.3136652869       0.0000000000       3.4114504049
      1.0477181949       2.0628460058       3.4114504049
      0.0000000000       0.0000000000       4.1220190890
Mn Pt
1 1
direct
   0.0000000000000000    0.0000000000000000    0.0000000000000000 Mn
   0.5000000000000000    0.5000000000000000    0.5000000000000000 Pt
