Cu4 I4
1.0
      3.3594741198       0.0000000000      10.8127868762
      1.6410462222       2.9313876677      10.8127868762
      0.0000000000       0.0000000000      11.3226506800
Cu I
4 4
direct
   0.7297257200000000    0.7297257200000000    0.7297257200000000 Cu
   0.5624517100000000    0.5624517100000000    0.5624517100000000 Cu
   0.3129549400000000    0.3129549400000000    0.3129549400000000 Cu
   0.1461122000000000    0.1461122000000000    0.1461122000000000 Cu
   0.7917783200000000    0.7917783200000000    0.7917783200000000 I
   0.6248566700000000    0.6248566700000000    0.6248566700000000 I
   0.3751424200000000    0.3751424200000000    0.3751424200000000 I
   0.2081790200000000    0.2081790200000000    0.2081790200000000 I
