Cu4 I4
1.0
      3.9893755173       0.0000000000      12.8401844155
      1.9487423888       3.4810228554      12.8401844155
      0.0000000000       0.0000000000      13.4456476825
Cu I
4 4
direct
   0.7297257200000000    0.7297257200000000    0.7297257200000000 Cu
   0.5624517100000000    0.5624517100000000    0.5624517100000000 Cu
   0.3129549400000000    0.3129549400000000    0.3129549400000000 Cu
   0.1461122000000000    0.1461122000000000    0.1461122000000000 Cu
   0.7917783200000000    0.7917783200000000    0.7917783200000000 I
   0.6248566700000000    0.6248566700000000    0.6248566700000000 I
   0.3751424200000000    0.3751424200000000    0.3751424200000000 I
   0.2081790200000000    0.2081790200000000    0.2081790200000000 I
