Dy2 Zn17
1.0
      5.3111433119       0.0000000000       0.6626061280
      0.5850781901       5.2788197022       0.6626063576
      0.0000000000       0.0000000000       5.3523167040
Dy Zn
2 17
direct
   0.6641629300000000    0.6641629300000000    0.6641629300000000 Dy
   0.3358370700000000    0.3358370700000000    0.3358370700000000 Dy
   0.3509564900000000    0.3509564900000000    0.8388002200000000 Zn
   0.3509564900000000    0.8388002200000000    0.3509564900000000 Zn
   0.0998260800000000    0.0998260800000000    0.0998260800000000 Zn
   0.9001739200000000    0.9001739200000000    0.9001739200000000 Zn
   0.0000000000000000    0.0000000000000000    0.5000000000000000 Zn
   0.5000000000000000    0.0000000000000000    0.0000000000000000 Zn
   0.0000000000000000    0.5000000000000000    0.0000000000000000 Zn
   0.7040084599999999    0.2959915400000000    0.0000000000000000 Zn
   0.0000000000000000    0.7040084599999999    0.2959915400000000 Zn
   0.2959915400000000    0.0000000000000000    0.7040084599999999 Zn
   0.2959915400000000    0.7040084599999999    0.0000000000000000 Zn
   0.0000000000000000    0.2959915400000000    0.7040084599999999 Zn
   0.7040084599999999    0.0000000000000000    0.2959915400000000 Zn
   0.6490435100000000    0.1611997800000000    0.6490435100000000 Zn
   0.6490435100000000    0.6490435100000000    0.1611997800000000 Zn
   0.1611997800000000    0.6490435100000000    0.6490435100000000 Zn
   0.8388002200000000    0.3509564900000000    0.3509564900000000 Zn
