Mn3 Ge1
1.0
      3.4689231000       0.0000000000       0.0000000000
     -0.0000000000       3.4689231000       0.0000000000
      0.0000000000       0.0000000000       3.4689231000
Mn Ge
3 1
direct
   0.0000000000000000    0.5000000000000000    0.5000000000000000 Mn
   0.5000000000000000    0.5000000000000000    0.0000000000000000 Mn
   0.5000000000000000    0.0000000000000000    0.5000000000000000 Mn
   0.0000000000000000    0.0000000000000000    0.0000000000000000 Ge
