Mn3 Ge1
1.0
      2.9211984000       0.0000000000       0.0000000000
     -0.0000000000       2.9211984000       0.0000000000
      0.0000000000       0.0000000000       2.9211984000
Mn Ge
3 1
direct
   0.0000000000000000    0.5000000000000000    0.5000000000000000 Mn
   0.5000000000000000    0.5000000000000000    0.0000000000000000 Mn
   0.5000000000000000    0.0000000000000000    0.5000000000000000 Mn
   0.0000000000000000    0.0000000000000000    0.0000000000000000 Ge
