Th1 Zn4
1.0
      3.5751644624       0.0000000000      -1.3743510898
     -0.5283220857       3.5359121808      -1.3743502240
      0.0000000000       0.0000000000       5.3372992230
Th Zn
1 4
direct
   0.0000000000000000    0.0000000000000000    0.0000000000000000 Th
   0.6185052700000000    0.6185052700000000    0.2370105400000000 Zn
   0.2500000000000000    0.7500000000000000    0.5000000000000000 Zn
   0.7500000000000000    0.2500000000000000    0.5000000000000000 Zn
   0.3814947300000000    0.3814947300000000    0.7629894600000000 Zn
