Th1 Zn4
1.0
      3.7737847103       0.0000000000      -1.4507039281
     -0.5576733127       3.7323517464      -1.4507030142
      0.0000000000       0.0000000000       5.6338158465
Th Zn
1 4
direct
   0.0000000000000000    0.0000000000000000    0.0000000000000000 Th
   0.6185052700000000    0.6185052700000000    0.2370105400000000 Zn
   0.2500000000000000    0.7500000000000000    0.5000000000000000 Zn
   0.7500000000000000    0.2500000000000000    0.5000000000000000 Zn
   0.3814947300000000    0.3814947300000000    0.7629894600000000 Zn
