Na1 Li3
1.0
      3.1725851653       0.0000000000      -2.8497703141
     -0.6309160777       3.1092187980      -2.8497703141
      0.0000000000       0.0000000000       4.2645618150
Na Li
1 3
direct
   0.0000000000000000    0.0000000000000000    0.0000000000000000 Na
   0.7500000000000000    0.2500000000000000    0.5000000000000000 Li
   0.2500000000000000    0.7500000000000000    0.5000000000000000 Li
   0.5000000000000000    0.5000000000000000    0.0000000000000000 Li
