Na1 Li3
1.0
      3.3840908430       0.0000000000      -3.0397550017
     -0.6729771496       3.3165000512      -3.0397550017
      0.0000000000       0.0000000000       4.5488659360
Na Li
1 3
direct
   0.0000000000000000    0.0000000000000000    0.0000000000000000 Na
   0.7500000000000000    0.2500000000000000    0.5000000000000000 Li
   0.2500000000000000    0.7500000000000000    0.5000000000000000 Li
   0.5000000000000000    0.5000000000000000    0.0000000000000000 Li
