Cu2 Bi2
1.0
      3.9382036470       0.0000000000       0.0000000000
     -1.9691022449       3.4105841603       0.0000000000
      0.0000000000       0.0000000000       4.6217518830
Cu Bi
2 2
direct
   0.0000000000000000    0.0000000000000000    0.0000000000000000 Cu
   0.0000000000000000    0.0000000000000000    0.5000000000000000 Cu
   0.3333333333333333    0.6666666666666666    0.2500000000000000 Bi
   0.6666666666666666    0.3333333333333333    0.7500000000000000 Bi
