Cu2 Bi2
1.0
      3.2818363725       0.0000000000       0.0000000000
     -1.6409185375       2.8421534669       0.0000000000
      0.0000000000       0.0000000000       3.8514599025
Cu Bi
2 2
direct
   0.0000000000000000    0.0000000000000000    0.0000000000000000 Cu
   0.0000000000000000    0.0000000000000000    0.5000000000000000 Cu
   0.3333333333333333    0.6666666666666666    0.2500000000000000 Bi
   0.6666666666666666    0.3333333333333333    0.7500000000000000 Bi
