Cu2 Bi2
1.0
      3.5006254640       0.0000000000       0.0000000000
     -1.7503131066       3.0316303647       0.0000000000
      0.0000000000       0.0000000000       4.1082238960
Cu Bi
2 2
direct
   0.0000000000000000    0.0000000000000000    0.0000000000000000 Cu
   0.0000000000000000    0.0000000000000000    0.5000000000000000 Cu
   0.3333333333333333    0.6666666666666666    0.2500000000000000 Bi
   0.6666666666666666    0.3333333333333333    0.7500000000000000 Bi
