Ce6 Mg6
1.0
      4.1904287025       0.0000000000       0.0000000000
     -0.0000000000       2.4279810525       0.0000000000
      0.0000000000       0.0000000000      13.0332213075
Ce Mg
6 6
direct
   0.0000000000000000    0.0000000000000000    0.3240207400000000 Ce
   0.5000000000000000    0.5000000000000000    0.2719157400000000 Ce
   0.5000000000000000    0.0000000000000000    0.1279054700000000 Ce
   0.0000000000000000    0.5000000000000000    0.8240207400000000 Ce
   0.5000000000000000    0.0000000000000000    0.7719157400000000 Ce
   0.5000000000000000    0.5000000000000000    0.6279054700000000 Ce
   0.0000000000000000    0.5000000000000000    0.5026458900000000 Mg
   0.0000000000000000    0.5000000000000000    0.1588990400000000 Mg
   0.5000000000000000    0.0000000000000000    0.4479461300000000 Mg
   0.0000000000000000    0.0000000000000000    0.0026458900000000 Mg
   0.0000000000000000    0.0000000000000000    0.6588990400000000 Mg
   0.5000000000000000    0.5000000000000000    0.9479461300000001 Mg
