Hf1 Cu3
1.0
      3.0531595309       0.0000000000      -2.3615400839
     -0.7353088276       2.9632927715      -2.3615400839
      0.0000000000       0.0000000000       3.8598775485
Hf Cu
1 3
direct
   0.0000000000000000    0.0000000000000000    0.0000000000000000 Hf
   0.7500000000000000    0.2500000000000000    0.5000000000000000 Cu
   0.2500000000000000    0.7500000000000000    0.5000000000000000 Cu
   0.5000000000000000    0.5000000000000000    0.0000000000000000 Cu
