Hf1 Cu3
1.0
      2.8735619115       0.0000000000      -2.2226259613
     -0.6920553671       2.7889814320      -2.2226259613
      0.0000000000       0.0000000000       3.6328259280
Hf Cu
1 3
direct
   0.0000000000000000    0.0000000000000000    0.0000000000000000 Hf
   0.7500000000000000    0.2500000000000000    0.5000000000000000 Cu
   0.2500000000000000    0.7500000000000000    0.5000000000000000 Cu
   0.5000000000000000    0.5000000000000000    0.0000000000000000 Cu
