Hf1 Cu3
1.0
      3.2327571504       0.0000000000      -2.5004542065
     -0.7785622880       3.1376041110      -2.5004542065
      0.0000000000       0.0000000000       4.0869291690
Hf Cu
1 3
direct
   0.0000000000000000    0.0000000000000000    0.0000000000000000 Hf
   0.7500000000000000    0.2500000000000000    0.5000000000000000 Cu
   0.2500000000000000    0.7500000000000000    0.5000000000000000 Cu
   0.5000000000000000    0.5000000000000000    0.0000000000000000 Cu
