Hf1 Cu3
1.0
      2.6939642920       0.0000000000      -2.0837118388
     -0.6488019067       2.6146700925      -2.0837118388
      0.0000000000       0.0000000000       3.4057743075
Hf Cu
1 3
direct
   0.0000000000000000    0.0000000000000000    0.0000000000000000 Hf
   0.7500000000000000    0.2500000000000000    0.5000000000000000 Cu
   0.2500000000000000    0.7500000000000000    0.5000000000000000 Cu
   0.5000000000000000    0.5000000000000000    0.0000000000000000 Cu
