Hf1 Cu3
1.0
      3.4123547699       0.0000000000      -2.6393683291
     -0.8218157485       3.3119154505      -2.6393683291
      0.0000000000       0.0000000000       4.3139807895
Hf Cu
1 3
direct
   0.0000000000000000    0.0000000000000000    0.0000000000000000 Hf
   0.7500000000000000    0.2500000000000000    0.5000000000000000 Cu
   0.2500000000000000    0.7500000000000000    0.5000000000000000 Cu
   0.5000000000000000    0.5000000000000000    0.0000000000000000 Cu
