Cu2 Ge6
1.0
      3.9108944340       0.0000000000       0.0000000000
     -1.9554474517       3.3869337959       0.0000000000
      0.0000000000       0.0000000000       8.0414244000
Cu Ge
2 6
direct
   0.3333333333333333    0.6666666666666666    0.2500000000000000 Cu
   0.6666666666666666    0.3333333333333333    0.7500000000000000 Cu
   0.3333333333333333    0.6666666666666666    0.5756100000000000 Ge
   0.6666666666666666    0.3333333333333333    0.4243900000000000 Ge
   0.6666666666666666    0.3333333333333333    0.0756100000000000 Ge
   0.3333333333333333    0.6666666666666666    0.9243900000000000 Ge
   0.0000000000000000    0.0000000000000000    0.2500000000000000 Ge
   0.0000000000000000    0.0000000000000000    0.7500000000000000 Ge
