K3 Li1
1.0
      4.1894737855       0.0000000000      -3.8471595118
     -0.8087804618       4.1106647593      -3.8471595118
      0.0000000000       0.0000000000       5.6879105925
K Li
3 1
direct
   0.7500000000000000    0.2500000000000000    0.5000000000000000 K
   0.2500000000000000    0.7500000000000000    0.5000000000000000 K
   0.5000000000000000    0.5000000000000000    0.0000000000000000 K
   0.0000000000000000    0.0000000000000000    0.0000000000000000 Li
