K3 Li1
1.0
      4.4687720378       0.0000000000      -4.1036368126
     -0.8626991593       4.3847090766      -4.1036368126
      0.0000000000       0.0000000000       6.0671046320
K Li
3 1
direct
   0.7500000000000000    0.2500000000000000    0.5000000000000000 K
   0.2500000000000000    0.7500000000000000    0.5000000000000000 K
   0.5000000000000000    0.5000000000000000    0.0000000000000000 K
   0.0000000000000000    0.0000000000000000    0.0000000000000000 Li
