Li3 C1
1.0
      3.0715961421       0.0000000000       1.7733868595
      1.0238653807       2.8959286149       1.7733868595
      0.0000000000       0.0000000000       3.5467737190
Li C
3 1
direct
   0.7500000000000000    0.7500000000000000    0.7500000000000000 Li
   0.2500000000000000    0.2500000000000000    0.2500000000000000 Li
   0.5000000000000000    0.5000000000000000    0.5000000000000000 Li
   0.0000000000000000    0.0000000000000000    0.0000000000000000 C
