Li3 C1
1.0
      2.7482702324       0.0000000000       1.5867145585
      0.9160900775       2.5910940238       1.5867145585
      0.0000000000       0.0000000000       3.1734291170
Li C
3 1
direct
   0.7500000000000000    0.7500000000000000    0.7500000000000000 Li
   0.2500000000000000    0.2500000000000000    0.2500000000000000 Li
   0.5000000000000000    0.5000000000000000    0.5000000000000000 Li
   0.0000000000000000    0.0000000000000000    0.0000000000000000 C
