Li1 Sm3
1.0
      3.7200847500       0.0000000000       0.0000000000
     -0.0000000000       3.7200847500       0.0000000000
      0.0000000000       0.0000000000       3.7200847500
Li Sm
1 3
direct
   0.0000000000000000    0.0000000000000000    0.0000000000000000 Li
   0.0000000000000000    0.5000000000000000    0.5000000000000000 Sm
   0.5000000000000000    0.0000000000000000    0.5000000000000000 Sm
   0.5000000000000000    0.5000000000000000    0.0000000000000000 Sm
