Li1 Pr3
1.0
      3.8021782500       0.0000000000       0.0000000000
     -0.0000000000       3.8021782500       0.0000000000
      0.0000000000       0.0000000000       3.8021782500
Li Pr
1 3
direct
   0.0000000000000000    0.0000000000000000    0.0000000000000000 Li
   0.0000000000000000    0.5000000000000000    0.5000000000000000 Pr
   0.5000000000000000    0.5000000000000000    0.0000000000000000 Pr
   0.5000000000000000    0.0000000000000000    0.5000000000000000 Pr
