Li3 Mg1
1.0
      3.3449244771       0.0000000000      -2.9604545258
     -0.6784153698       3.2754041497      -2.9604545258
      0.0000000000       0.0000000000       4.4668569215
Li Mg
3 1
direct
   0.5000000000000000    0.5000000000000000    0.0000000000000000 Li
   0.2500000000000000    0.7500000000000000    0.5000000000000000 Li
   0.7500000000000000    0.2500000000000000    0.5000000000000000 Li
   0.0000000000000000    0.0000000000000000    0.0000000000000000 Mg
