Li3 Mg1
1.0
      2.9514039504       0.0000000000      -2.6121657581
     -0.5986017969       2.8900624850      -2.6121657581
      0.0000000000       0.0000000000       3.9413443425
Li Mg
3 1
direct
   0.5000000000000000    0.5000000000000000    0.0000000000000000 Li
   0.2500000000000000    0.7500000000000000    0.5000000000000000 Li
   0.7500000000000000    0.2500000000000000    0.5000000000000000 Li
   0.0000000000000000    0.0000000000000000    0.0000000000000000 Mg
