Mg6 As4
1.0
      4.6646625000       0.0000000000       0.0000000000
     -0.0000000000       4.6646625000       0.0000000000
      0.0000000000       0.0000000000       4.6646625000
Mg As
6 4
direct
   0.0000000000000000    0.5000000000000000    0.5000000000000000 Mg
   0.5000000000000000    0.0000000000000000    0.0000000000000000 Mg
   0.0000000000000000    0.0000000000000000    0.5000000000000000 Mg
   0.0000000000000000    0.5000000000000000    0.0000000000000000 Mg
   0.5000000000000000    0.0000000000000000    0.5000000000000000 Mg
   0.5000000000000000    0.5000000000000000    0.0000000000000000 Mg
   0.2500000000000000    0.2500000000000000    0.2500000000000000 As
   0.7500000000000000    0.2500000000000000    0.7500000000000000 As
   0.7500000000000000    0.7500000000000000    0.2500000000000000 As
   0.2500000000000000    0.7500000000000000    0.7500000000000000 As
