Cu1 N1
1.0
      2.2159381000       0.0000000000       0.0000000000
     -0.0000000000       2.2159381000       0.0000000000
      0.0000000000       0.0000000000       2.2159381000
Cu N
1 1
direct
   0.0000000000000000    0.0000000000000000    0.0000000000000000 Cu
   0.5000000000000000    0.5000000000000000    0.5000000000000000 N
