Ba2 Cu26
1.0
      6.3968009869       0.0000000000       3.6931952347
      2.1322673008       6.0309610177       3.6931952326
      0.0000000000       0.0000000000       7.3863895590
Ba Cu
2 26
direct
   0.7500000000000000    0.7500000000000000    0.7500000000000000 Ba
   0.2500000000000000    0.2500000000000000    0.2500000000000000 Ba
   0.5000000000000000    0.5000000000000000    0.5000000000000000 Cu
   0.0000000000000000    0.0000000000000000    0.0000000000000000 Cu
   0.2059990600000000    0.7940009400000000    0.4349161700000000 Cu
   0.7059990600000000    0.0650838300000000    0.9349161700000000 Cu
   0.9349161700000000    0.2940009400000000    0.7059990600000000 Cu
   0.7059990600000000    0.9349161700000000    0.2940009400000000 Cu
   0.0650838300000000    0.2940009400000000    0.9349161700000000 Cu
   0.0650838300000000    0.9349161700000000    0.7059990600000000 Cu
   0.9349161700000000    0.0650838300000000    0.2940009400000000 Cu
   0.4349161700000000    0.2059990600000000    0.7940009400000000 Cu
   0.7940009400000000    0.4349161700000000    0.2059990600000000 Cu
   0.5650838300000000    0.2059990600000000    0.4349161700000000 Cu
   0.7940009400000000    0.5650838300000000    0.4349161700000000 Cu
   0.5650838300000000    0.7940009400000000    0.2059990600000000 Cu
   0.4349161700000000    0.7940009400000000    0.5650838300000000 Cu
   0.2059990600000000    0.4349161700000000    0.5650838300000000 Cu
   0.2059990600000000    0.5650838300000000    0.7940009400000000 Cu
   0.9349161700000000    0.7059990600000000    0.0650838300000000 Cu
   0.2940009400000000    0.9349161700000000    0.0650838300000000 Cu
   0.2940009400000000    0.7059990600000000    0.9349161700000000 Cu
   0.7059990600000000    0.2940009400000000    0.0650838300000000 Cu
   0.0650838300000000    0.7059990600000000    0.2940009400000000 Cu
   0.2940009400000000    0.0650838300000000    0.7059990600000000 Cu
   0.4349161700000000    0.5650838300000000    0.2059990600000000 Cu
   0.5650838300000000    0.4349161700000000    0.7940009400000000 Cu
   0.7940009400000000    0.2059990600000000    0.5650838300000000 Cu
