Mn1 Te1
1.0
      3.2408652461       0.0000000000       1.8711148913
      1.0802880674       3.0555174455       1.8711148890
      0.0000000000       0.0000000000       3.7422287370
Mn Te
1 1
direct
   0.0000000000000000    0.0000000000000000    0.0000000000000000 Mn
   0.5000000000000000    0.5000000000000000    0.5000000000000000 Te
