Mn1 Te1
1.0
      2.7007210384       0.0000000000       1.5592624094
      0.9002400562       2.5462645379       1.5592624075
      0.0000000000       0.0000000000       3.1185239475
Mn Te
1 1
direct
   0.0000000000000000    0.0000000000000000    0.0000000000000000 Mn
   0.5000000000000000    0.5000000000000000    0.5000000000000000 Te
