Mn1 Te1
1.0
      2.8807691076       0.0000000000       1.6632132367
      0.9602560599       2.7160155071       1.6632132347
      0.0000000000       0.0000000000       3.3264255440
Mn Te
1 1
direct
   0.0000000000000000    0.0000000000000000    0.0000000000000000 Mn
   0.5000000000000000    0.5000000000000000    0.5000000000000000 Te
