Mn1 Te1
1.0
      3.0608171768       0.0000000000       1.7671640640
      1.0202720637       2.8857664763       1.7671640619
      0.0000000000       0.0000000000       3.5343271405
Mn Te
1 1
direct
   0.0000000000000000    0.0000000000000000    0.0000000000000000 Mn
   0.5000000000000000    0.5000000000000000    0.5000000000000000 Te
