Mn1 Te1
1.0
      3.4209133153       0.0000000000       1.9750657186
      1.1403040712       3.2252684147       1.9750657162
      0.0000000000       0.0000000000       3.9501303335
Mn Te
1 1
direct
   0.0000000000000000    0.0000000000000000    0.0000000000000000 Mn
   0.5000000000000000    0.5000000000000000    0.5000000000000000 Te
