Li6 P2
1.0
      3.1644554475       0.0000000000       0.0000000000
     -1.5822281021       2.7404983717       0.0000000000
      0.0000000000       0.0000000000       5.6602931475
Li P
6 2
direct
   0.0000000000000000    0.0000000000000000    0.2500000000000000 Li
   0.0000000000000000    0.0000000000000000    0.7500000000000000 Li
   0.3333333333333333    0.6666666666666666    0.5836018100000000 Li
   0.6666666666666666    0.3333333333333333    0.0836018100000000 Li
   0.6666666666666666    0.3333333333333333    0.4163981900000000 Li
   0.3333333333333333    0.6666666666666666    0.9163981900000000 Li
   0.3333333333333333    0.6666666666666666    0.2500000000000000 P
   0.6666666666666666    0.3333333333333333    0.7500000000000000 P
