Li6 P2
1.0
      3.7973465370       0.0000000000       0.0000000000
     -1.8986737225       3.2885980461       0.0000000000
      0.0000000000       0.0000000000       6.7923517770
Li P
6 2
direct
   0.0000000000000000    0.0000000000000000    0.2500000000000000 Li
   0.0000000000000000    0.0000000000000000    0.7500000000000000 Li
   0.3333333333333333    0.6666666666666666    0.5836018100000000 Li
   0.6666666666666666    0.3333333333333333    0.0836018100000000 Li
   0.6666666666666666    0.3333333333333333    0.4163981900000000 Li
   0.3333333333333333    0.6666666666666666    0.9163981900000000 Li
   0.3333333333333333    0.6666666666666666    0.2500000000000000 P
   0.6666666666666666    0.3333333333333333    0.7500000000000000 P
