Li1 S1
1.0
      2.9223204418       0.0000000000       1.6872024938
      0.9741068139       2.7551901350       1.6872024938
      0.0000000000       0.0000000000       3.3744049875
Li S
1 1
direct
   0.5000000000000000    0.5000000000000000    0.5000000000000000 Li
   0.0000000000000000    0.0000000000000000    0.0000000000000000 S
