Li1 S1
1.0
      2.3070950857       0.0000000000       1.3320019688
      0.7690316952       2.1751501065       1.3320019688
      0.0000000000       0.0000000000       2.6640039375
Li S
1 1
direct
   0.5000000000000000    0.5000000000000000    0.5000000000000000 Li
   0.0000000000000000    0.0000000000000000    0.0000000000000000 S
