Mn6 F24
1.0
      5.4116588936       0.0000000000       0.2875958691
      0.2727171890       5.4047828185       0.2875958691
      0.0000000000       0.0000000000       5.4192954300
Mn F
6 24
direct
   0.0000000000000000    0.0000000000000000    0.5000000000000000 Mn
   0.5000000000000000    0.0000000000000000    0.0000000000000000 Mn
   0.0000000000000000    0.5000000000000000    0.0000000000000000 Mn
   0.5000000000000000    0.0000000000000000    0.5000000000000000 Mn
   0.0000000000000000    0.5000000000000000    0.5000000000000000 Mn
   0.5000000000000000    0.5000000000000000    0.0000000000000000 Mn
   0.9426400000000000    0.0570370000000000    0.7303510000000000 F
   0.9429630000000000    0.2696490000000000    0.0573600000000000 F
   0.4429630000000000    0.5573600000000000    0.7696490000000000 F
   0.2500000000000000    0.4366740000000000    0.0633260000000000 F
   0.9375590000000000    0.5624410000000000    0.2500000000000000 F
   0.4375590000000000    0.7500000000000000    0.0624410000000000 F
   0.2303510000000000    0.5570370000000000    0.4426400000000000 F
   0.7303510000000000    0.9426400000000000    0.0570370000000000 F
   0.5573600000000000    0.7696490000000000    0.4429630000000000 F
   0.9366740000000000    0.7500000000000000    0.5633260000000000 F
   0.4366740000000000    0.0633260000000000    0.2500000000000000 F
   0.2500000000000000    0.9375590000000000    0.5624410000000000 F
   0.7500000000000000    0.0624410000000000    0.4375590000000000 F
   0.5633260000000000    0.9366740000000000    0.7500000000000000 F
   0.0633260000000000    0.2500000000000000    0.4366740000000000 F
   0.4426400000000000    0.2303510000000000    0.5570370000000000 F
   0.2696490000000000    0.0573600000000000    0.9429630000000000 F
   0.7696490000000000    0.4429630000000000    0.5573600000000000 F
   0.5624410000000000    0.2500000000000000    0.9375590000000000 F
   0.0624410000000000    0.4375590000000000    0.7500000000000000 F
   0.7500000000000000    0.5633260000000000    0.9366740000000000 F
   0.5570370000000000    0.4426400000000000    0.2303510000000000 F
   0.0570370000000000    0.7303510000000000    0.9426400000000000 F
   0.0573600000000000    0.9429630000000000    0.2696490000000000 F
