Mn10 C4
1.0
      5.2551108775       0.0000000000       0.6378743397
      3.8788233516       3.5455492864       0.6378743397
      0.0000000000       0.0000000000       4.2478180160
Mn C
10 4
direct
   0.6260980000000000    0.8067330000000000    0.6934600000000000 Mn
   0.1932670000000000    0.3739020000000000    0.8065400000000000 Mn
   0.3739020000000000    0.1932670000000000    0.3065400000000000 Mn
   0.8067330000000000    0.6260980000000000    0.1934600000000000 Mn
   0.4306080000000000    0.5693920000000000    0.7500000000000000 Mn
   0.5693920000000000    0.4306080000000000    0.2500000000000000 Mn
   0.1891390000000000    0.0117720000000000    0.0807740000000000 Mn
   0.9882280000000000    0.8108610000000001    0.4192260000000000 Mn
   0.8108610000000001    0.9882280000000000    0.9192260000000000 Mn
   0.0117720000000000    0.1891390000000000    0.5807740000000000 Mn
   0.4301640000000000    0.7963160000000000    0.4213840000000000 C
   0.2036840000000000    0.5698360000000000    0.0786160000000000 C
   0.5698360000000000    0.2036840000000000    0.5786160000000000 C
   0.7963160000000000    0.4301640000000000    0.9213840000000000 C
