Cu1 Pb3
1.0
      4.0463009000       0.0000000000       0.0000000000
     -0.0000000000       4.0463009000       0.0000000000
      0.0000000000       0.0000000000       4.0463009000
Cu Pb
1 3
direct
   0.0000000000000000    0.0000000000000000    0.0000000000000000 Cu
   0.0000000000000000    0.5000000000000000    0.5000000000000000 Pb
   0.5000000000000000    0.0000000000000000    0.5000000000000000 Pb
   0.5000000000000000    0.5000000000000000    0.0000000000000000 Pb
