Cu1 Pb3
1.0
      3.5702655000       0.0000000000       0.0000000000
     -0.0000000000       3.5702655000       0.0000000000
      0.0000000000       0.0000000000       3.5702655000
Cu Pb
1 3
direct
   0.0000000000000000    0.0000000000000000    0.0000000000000000 Cu
   0.0000000000000000    0.5000000000000000    0.5000000000000000 Pb
   0.5000000000000000    0.0000000000000000    0.5000000000000000 Pb
   0.5000000000000000    0.5000000000000000    0.0000000000000000 Pb
