Cu2 N2
1.0
      2.5865142300       0.0000000000       0.0000000000
     -0.0000254558       2.5865142299       0.0000000000
      0.0000000000       0.0000000000       3.8882632500
Cu N
2 2
direct
   0.5033330000000000    0.4938780000000000    0.7500000000000000 Cu
   0.4938780000000000    0.5033330000000000    0.2500000000000000 Cu
   0.4891890000000000    0.0033660000000000    0.2500000000000000 N
   0.0033660000000000    0.4891890000000000    0.7500000000000000 N
