Cu2 N2
1.0
      3.2762513580       0.0000000000       0.0000000000
     -0.0000322440       3.2762513578       0.0000000000
      0.0000000000       0.0000000000       4.9251334500
Cu N
2 2
direct
   0.5033330000000000    0.4938780000000000    0.7500000000000000 Cu
   0.4938780000000000    0.5033330000000000    0.2500000000000000 Cu
   0.4891890000000000    0.0033660000000000    0.2500000000000000 N
   0.0033660000000000    0.4891890000000000    0.7500000000000000 N
