Li3 Pd1
1.0
      2.8154828168       0.0000000000       1.6255198284
      0.9384940170       2.6544624552       1.6255198239
      0.0000000000       0.0000000000       3.2510388750
Li Pd
3 1
direct
   0.5000000000000000    0.5000000000000000    0.5000000000000000 Li
   0.2500000000000000    0.2500000000000000    0.2500000000000000 Li
   0.7500000000000000    0.7500000000000000    0.7500000000000000 Li
   0.0000000000000000    0.0000000000000000    0.0000000000000000 Pd
