Li3 Pd1
1.0
      3.5662782347       0.0000000000       2.0589917826
      1.1887590882       3.3623191100       2.0589917769
      0.0000000000       0.0000000000       4.1179825750
Li Pd
3 1
direct
   0.5000000000000000    0.5000000000000000    0.5000000000000000 Li
   0.2500000000000000    0.2500000000000000    0.2500000000000000 Li
   0.7500000000000000    0.7500000000000000    0.7500000000000000 Li
   0.0000000000000000    0.0000000000000000    0.0000000000000000 Pd
