Cu2 I2
1.0
      3.8856863805       0.0000000000       0.0000000000
     -0.0000000000       3.8856863805       0.0000000000
      0.0000000000       0.0000000000       6.2238851380
Cu I
2 2
direct
   0.2500000000000000    0.7500000000000000    0.0000000000000000 Cu
   0.7500000000000000    0.2500000000000000    0.0000000000000000 Cu
   0.2500000000000000    0.2500000000000000    0.2569656400000000 I
   0.7500000000000000    0.7500000000000000    0.7430343600000000 I
