K4 O2
1.0
      4.8130672806       0.0000000000       2.5961423907
      2.4019573079       2.7353631222       6.9411535892
      0.0000000000       0.0000000000       5.6342963775
K O
4 2
direct
   0.9476554300000000    0.9992002200000000    0.1053691800000000 K
   0.5509524000000000    0.9984162300000000    0.9021916500000000 K
   0.3039616400000000    0.4939359800000000    0.9067797399999999 K
   0.7012903300000000    0.4940162900000000    0.1104612300000000 K
   0.4968766100000000    0.5030770000000000    0.4993590900000000 O
   0.7552145800000000    0.9900392900000000    0.5124591200000000 O
