Mn1 Be3
1.0
      2.7639822640       0.0000000000      -0.0000017511
     -0.0000017511       2.7639813970      -0.0000017511
      0.0000000000       0.0000000000       2.7639848820
Mn Be
1 3
direct
   0.0000000000000000    0.0000000000000000    0.0000000000000000 Mn
   0.9999990000000000    0.4999990000000000    0.5000000000000000 Be
   0.5000000000000000    0.9999990000000000    0.4999990000000000 Be
   0.4999990000000000    0.4999990000000000    0.9999990000000000 Be
