Mn1 Be3
1.0
      2.9265694560       0.0000000000      -0.0000018541
     -0.0000018541       2.9265685380      -0.0000018541
      0.0000000000       0.0000000000       2.9265722280
Mn Be
1 3
direct
   0.0000000000000000    0.0000000000000000    0.0000000000000000 Mn
   0.9999990000000000    0.4999990000000000    0.5000000000000000 Be
   0.5000000000000000    0.9999990000000000    0.4999990000000000 Be
   0.4999990000000000    0.4999990000000000    0.9999990000000000 Be
