Mn1 Be3
1.0
      3.0891566480       0.0000000000      -0.0000019571
     -0.0000019571       3.0891556790      -0.0000019571
      0.0000000000       0.0000000000       3.0891595740
Mn Be
1 3
direct
   0.0000000000000000    0.0000000000000000    0.0000000000000000 Mn
   0.9999990000000000    0.4999990000000000    0.5000000000000000 Be
   0.5000000000000000    0.9999990000000000    0.4999990000000000 Be
   0.4999990000000000    0.4999990000000000    0.9999990000000000 Be
