Mn1 Be3
1.0
      2.4388078800       0.0000000000      -0.0000015451
     -0.0000015451       2.4388071150      -0.0000015451
      0.0000000000       0.0000000000       2.4388101900
Mn Be
1 3
direct
   0.0000000000000000    0.0000000000000000    0.0000000000000000 Mn
   0.9999990000000000    0.4999990000000000    0.5000000000000000 Be
   0.5000000000000000    0.9999990000000000    0.4999990000000000 Be
   0.4999990000000000    0.4999990000000000    0.9999990000000000 Be
