Mn1 Be3
1.0
      2.6013950720       0.0000000000      -0.0000016481
     -0.0000016481       2.6013942560      -0.0000016481
      0.0000000000       0.0000000000       2.6013975360
Mn Be
1 3
direct
   0.0000000000000000    0.0000000000000000    0.0000000000000000 Mn
   0.9999990000000000    0.4999990000000000    0.5000000000000000 Be
   0.5000000000000000    0.9999990000000000    0.4999990000000000 Be
   0.4999990000000000    0.4999990000000000    0.9999990000000000 Be
