Li3 Nb1
1.0
      3.1111498303       0.0000000000       1.7962231920
      1.0370499434       2.9332201897       1.7962231920
      0.0000000000       0.0000000000       3.5924463840
Li Nb
3 1
direct
   0.2500000000000000    0.2500000000000000    0.2500000000000000 Li
   0.7500000000000000    0.7500000000000000    0.7500000000000000 Li
   0.5000000000000000    0.5000000000000000    0.5000000000000000 Li
   0.0000000000000000    0.0000000000000000    0.0000000000000000 Nb
