Li3 Nb1
1.0
      3.6944904235       0.0000000000       2.1330150405
      1.2314968078       3.4831989753       2.1330150405
      0.0000000000       0.0000000000       4.2660300810
Li Nb
3 1
direct
   0.2500000000000000    0.2500000000000000    0.2500000000000000 Li
   0.7500000000000000    0.7500000000000000    0.7500000000000000 Li
   0.5000000000000000    0.5000000000000000    0.5000000000000000 Li
   0.0000000000000000    0.0000000000000000    0.0000000000000000 Nb
