Li3 Nb1
1.0
      3.3055966947       0.0000000000       1.9084871415
      1.1018655649       3.1165464516       1.9084871415
      0.0000000000       0.0000000000       3.8169742830
Li Nb
3 1
direct
   0.2500000000000000    0.2500000000000000    0.2500000000000000 Li
   0.7500000000000000    0.7500000000000000    0.7500000000000000 Li
   0.5000000000000000    0.5000000000000000    0.5000000000000000 Li
   0.0000000000000000    0.0000000000000000    0.0000000000000000 Nb
