Li3 Sn1
1.0
      3.2057668399       0.0000000000       1.8508503480
      1.0685889466       3.0224259619       1.8508503480
      0.0000000000       0.0000000000       3.7017006960
Li Sn
3 1
direct
   0.2500000000000000    0.2500000000000000    0.2500000000000000 Li
   0.7500000000000000    0.7500000000000000    0.7500000000000000 Li
   0.5000000000000000    0.5000000000000000    0.5000000000000000 Li
   0.0000000000000000    0.0000000000000000    0.0000000000000000 Sn
