Li3 Sn1
1.0
      3.6064876949       0.0000000000       2.0822066415
      1.2021625650       3.4002292071       2.0822066415
      0.0000000000       0.0000000000       4.1644132830
Li Sn
3 1
direct
   0.2500000000000000    0.2500000000000000    0.2500000000000000 Li
   0.7500000000000000    0.7500000000000000    0.7500000000000000 Li
   0.5000000000000000    0.5000000000000000    0.5000000000000000 Li
   0.0000000000000000    0.0000000000000000    0.0000000000000000 Sn
