Li3 Sn1
1.0
      3.8068481224       0.0000000000       2.1978847883
      1.2689493741       3.5891308298       2.1978847883
      0.0000000000       0.0000000000       4.3957695765
Li Sn
3 1
direct
   0.2500000000000000    0.2500000000000000    0.2500000000000000 Li
   0.7500000000000000    0.7500000000000000    0.7500000000000000 Li
   0.5000000000000000    0.5000000000000000    0.5000000000000000 Li
   0.0000000000000000    0.0000000000000000    0.0000000000000000 Sn
