Cu1 Ge3
1.0
      3.1361554771       0.0000000000      -3.1023804941
     -0.5463595669       3.0881972735      -3.1023804941
      0.0000000000       0.0000000000       4.4113757385
Cu Ge
1 3
direct
   0.0000000000000000    0.0000000000000000    0.0000000000000000 Cu
   0.7500000000000000    0.2500000000000000    0.5000000000000000 Ge
   0.2500000000000000    0.7500000000000000    0.5000000000000000 Ge
   0.5000000000000000    0.5000000000000000    0.0000000000000000 Ge
