Cu1 Ge3
1.0
      2.7671960092       0.0000000000      -2.7373945536
     -0.4820819708       2.7248799472      -2.7373945536
      0.0000000000       0.0000000000       3.8923903575
Cu Ge
1 3
direct
   0.0000000000000000    0.0000000000000000    0.0000000000000000 Cu
   0.7500000000000000    0.2500000000000000    0.5000000000000000 Ge
   0.2500000000000000    0.7500000000000000    0.5000000000000000 Ge
   0.5000000000000000    0.5000000000000000    0.0000000000000000 Ge
