Cu1 Ge3
1.0
      3.3206352110       0.0000000000      -3.2848734643
     -0.5784983649       3.2698559366      -3.2848734643
      0.0000000000       0.0000000000       4.6708684290
Cu Ge
1 3
direct
   0.0000000000000000    0.0000000000000000    0.0000000000000000 Cu
   0.7500000000000000    0.2500000000000000    0.5000000000000000 Ge
   0.2500000000000000    0.7500000000000000    0.5000000000000000 Ge
   0.5000000000000000    0.5000000000000000    0.0000000000000000 Ge
