Cu1 Ge3
1.0
      2.9516757431       0.0000000000      -2.9198875238
     -0.5142207688       2.9065386103      -2.9198875238
      0.0000000000       0.0000000000       4.1518830480
Cu Ge
1 3
direct
   0.0000000000000000    0.0000000000000000    0.0000000000000000 Cu
   0.7500000000000000    0.2500000000000000    0.5000000000000000 Ge
   0.2500000000000000    0.7500000000000000    0.5000000000000000 Ge
   0.5000000000000000    0.5000000000000000    0.0000000000000000 Ge
