Cu1 Ge3
1.0
      3.5051149450       0.0000000000      -3.4673664345
     -0.6106371630       3.4515145998      -3.4673664345
      0.0000000000       0.0000000000       4.9303611195
Cu Ge
1 3
direct
   0.0000000000000000    0.0000000000000000    0.0000000000000000 Cu
   0.7500000000000000    0.2500000000000000    0.5000000000000000 Ge
   0.2500000000000000    0.7500000000000000    0.5000000000000000 Ge
   0.5000000000000000    0.5000000000000000    0.0000000000000000 Ge
