Tm1 Zn1
1.0
      2.7949871840       0.0000000000       0.0000000000
     -0.0000000000       2.7949871840       0.0000000000
      0.0000000000       0.0000000000       2.7949871840
Tm Zn
1 1
direct
   0.0000000000000000    0.0000000000000000    0.0000000000000000 Tm
   0.5000000000000000    0.5000000000000000    0.5000000000000000 Zn
