Tm1 Zn1
1.0
      2.6203004850       0.0000000000       0.0000000000
     -0.0000000000       2.6203004850       0.0000000000
      0.0000000000       0.0000000000       2.6203004850
Tm Zn
1 1
direct
   0.0000000000000000    0.0000000000000000    0.0000000000000000 Tm
   0.5000000000000000    0.5000000000000000    0.5000000000000000 Zn
