Cu4 Se3
1.0
      3.3354865921       0.0000000000      -0.6498911515
      1.6044309527       2.9242558239      -0.6498911515
      0.0000000000       0.0000000000       8.8844316120
Cu Se
4 3
direct
   0.3687700000000000    0.3687700000000000    0.1063090000000000 Cu
   0.8936520000000000    0.8936520000000000    0.6809550000000000 Cu
   0.1312300000000000    0.1312300000000000    0.3936910000000000 Cu
   0.6063480000000000    0.6063480000000000    0.8190450000000000 Cu
   0.9816710000000000    0.9816710000000000    0.9450140000000000 Se
   0.5183290000000000    0.5183290000000000    0.5549860000000000 Se
   0.7500000000000000    0.7500000000000000    0.2500000000000000 Se
