Li5 Mg1
1.0
      2.2966395750       0.0000000000       0.0000000000
     -1.1483206116       1.9889477395       0.0000000000
      0.0000000000       0.0000000000      11.4921228075
Li Mg
5 1
direct
   0.6666666666666666    0.3333333333333333    0.1697627500000000 Li
   0.0000000000000000    0.0000000000000000    0.3333671700000000 Li
   0.6666666666666666    0.3333333333333333    0.5000000000000000 Li
   0.0000000000000000    0.0000000000000000    0.6666666666666666 Li
   0.6666666666666666    0.3333333333333333    0.8302372500000000 Li
   0.0000000000000000    0.0000000000000000    0.0000000000000000 Mg
