Sm2 Zn4
1.0
      3.3218479590       0.0000000000       1.4402409891
      1.6243620258       4.1743940665       0.8044486333
      0.0000000000       0.0000000000       4.5509613120
Sm Zn
2 4
direct
   0.5365595600000000    0.7134404400000000    0.2134404400000000 Sm
   0.4634404400000000    0.2865595600000000    0.7865595600000000 Sm
   0.8348694700000000    0.7189460500000000    0.6113150100000000 Zn
   0.1651305300000000    0.2810539500000000    0.3886849900000000 Zn
   0.8348694700000000    0.1113150100000000    0.2189460500000000 Zn
   0.1651305300000000    0.8886849900000000    0.7810539500000000 Zn
