Li3 Nd1
1.0
      4.2665324387       0.0000000000       2.4632836520
      1.4221774796       4.0225253594       2.4632836520
      0.0000000000       0.0000000000       4.9265673040
Li Nd
3 1
direct
   0.2500000000000000    0.2500000000000000    0.2500000000000000 Li
   0.7500000000000000    0.7500000000000000    0.7500000000000000 Li
   0.5000000000000000    0.5000000000000000    0.5000000000000000 Li
   0.0000000000000000    0.0000000000000000    0.0000000000000000 Nd
