Li3 Nd1
1.0
      3.8174237610       0.0000000000       2.2039906360
      1.2724745870       3.5991016374       2.2039906360
      0.0000000000       0.0000000000       4.4079812720
Li Nd
3 1
direct
   0.2500000000000000    0.2500000000000000    0.2500000000000000 Li
   0.7500000000000000    0.7500000000000000    0.7500000000000000 Li
   0.5000000000000000    0.5000000000000000    0.5000000000000000 Li
   0.0000000000000000    0.0000000000000000    0.0000000000000000 Nd
