Li3 Nd1
1.0
      3.5928694221       0.0000000000       2.0743441280
      1.1976231407       3.3873897764       2.0743441280
      0.0000000000       0.0000000000       4.1486882560
Li Nd
3 1
direct
   0.2500000000000000    0.2500000000000000    0.2500000000000000 Li
   0.7500000000000000    0.7500000000000000    0.7500000000000000 Li
   0.5000000000000000    0.5000000000000000    0.5000000000000000 Li
   0.0000000000000000    0.0000000000000000    0.0000000000000000 Nd
