Li1 O8
1.0
      3.2602369893       0.0000000000       1.2367770009
      1.0325727192       3.8327413208       1.5333145378
      0.0000000000       0.0000000000       4.2552515325
Li O
1 8
direct
   0.0000000000000000    0.0000000000000000    0.0000000000000000 Li
   0.8484300000000000    0.3388450000000000    0.7254040000000000 O
   0.1515700000000000    0.2745960000000000    0.6611550000000000 O
   0.1515700000000000    0.6611550000000000    0.2745960000000000 O
   0.8484300000000000    0.7254040000000000    0.3388450000000000 O
   0.8490090000000000    0.2526110000000000    0.2526110000000000 O
   0.1509910000000000    0.7473890000000000    0.7473890000000000 O
   0.1479490000000000    0.1887740000000000    0.1887740000000000 O
   0.8520510000000000    0.8112260000000000    0.8112260000000000 O
