K3 Ga1
1.0
      5.2747816131       0.0000000000       3.0453965843
      1.7582605377       4.9731117972       3.0453965843
      0.0000000000       0.0000000000       6.0907931685
K Ga
3 1
direct
   0.2500000000000000    0.2500000000000000    0.2500000000000000 K
   0.7500000000000000    0.7500000000000000    0.7500000000000000 K
   0.5000000000000000    0.5000000000000000    0.5000000000000000 K
   0.0000000000000000    0.0000000000000000    0.0000000000000000 Ga
