K3 Ga1
1.0
      4.1643012735       0.0000000000       2.4042604613
      1.3881004245       3.9261408925       2.4042604613
      0.0000000000       0.0000000000       4.8085209225
K Ga
3 1
direct
   0.2500000000000000    0.2500000000000000    0.2500000000000000 K
   0.7500000000000000    0.7500000000000000    0.7500000000000000 K
   0.5000000000000000    0.5000000000000000    0.5000000000000000 K
   0.0000000000000000    0.0000000000000000    0.0000000000000000 Ga
