K3 Ga1
1.0
      4.9971615282       0.0000000000       2.8851125535
      1.6657205094       4.7113690710       2.8851125535
      0.0000000000       0.0000000000       5.7702251070
K Ga
3 1
direct
   0.2500000000000000    0.2500000000000000    0.2500000000000000 K
   0.7500000000000000    0.7500000000000000    0.7500000000000000 K
   0.5000000000000000    0.5000000000000000    0.5000000000000000 K
   0.0000000000000000    0.0000000000000000    0.0000000000000000 Ga
