K3 Ga1
1.0
      4.7195414433       0.0000000000       2.7248285228
      1.5731804811       4.4496263449       2.7248285228
      0.0000000000       0.0000000000       5.4496570455
K Ga
3 1
direct
   0.2500000000000000    0.2500000000000000    0.2500000000000000 K
   0.7500000000000000    0.7500000000000000    0.7500000000000000 K
   0.5000000000000000    0.5000000000000000    0.5000000000000000 K
   0.0000000000000000    0.0000000000000000    0.0000000000000000 Ga
