K3 Ga1
1.0
      4.4419213584       0.0000000000       2.5645444920
      1.4806404528       4.1878836187       2.5645444920
      0.0000000000       0.0000000000       5.1290889840
K Ga
3 1
direct
   0.2500000000000000    0.2500000000000000    0.2500000000000000 K
   0.7500000000000000    0.7500000000000000    0.7500000000000000 K
   0.5000000000000000    0.5000000000000000    0.5000000000000000 K
   0.0000000000000000    0.0000000000000000    0.0000000000000000 Ga
