Li2 C2
1.0
      3.0510303447       0.0000000000       1.5272979722
      1.3667309144       3.3894602527       1.0808483278
      0.0000000000       0.0000000000       3.8111192655
Li C
2 2
direct
   0.7606944400000000    0.7393055600000000    0.7393055600000000 Li
   0.2393055600000000    0.2606944400000000    0.2606944400000000 Li
   0.0000000000000000    0.8697440600000000    0.1302559400000000 C
   0.0000000000000000    0.1302559400000000    0.8697440600000000 C
