Li2 C2
1.0
      2.5692887113       0.0000000000       1.2861456608
      1.1509312963       2.8542823180       0.9101880655
      0.0000000000       0.0000000000       3.2093635920
Li C
2 2
direct
   0.7606944400000000    0.7393055600000000    0.7393055600000000 Li
   0.2393055600000000    0.2606944400000000    0.2606944400000000 Li
   0.0000000000000000    0.8697440600000000    0.1302559400000000 C
   0.0000000000000000    0.1302559400000000    0.8697440600000000 C
