Mn6 Be2
1.0
      4.0721548485       0.0000000000       0.0000000000
     -2.0360777751       3.5265893444       0.0000000000
      0.0000000000       0.0000000000       3.4283534500
Mn Be
6 2
direct
   0.1721730000000000    0.3443450000000000    0.2500000000000000 Mn
   0.6556550000000000    0.8278270000000000    0.2500000000000000 Mn
   0.1721730000000000    0.8278270000000000    0.2500000000000000 Mn
   0.8278270000000000    0.6556550000000000    0.7500000000000000 Mn
   0.3443450000000000    0.1721730000000000    0.7500000000000000 Mn
   0.8278270000000000    0.1721730000000000    0.7500000000000000 Mn
   0.3333333333333333    0.6666666666666666    0.7500000000000000 Be
   0.6666666666666666    0.3333333333333333    0.2500000000000000 Be
