Mn6 Be2
1.0
      3.8326163280       0.0000000000       0.0000000000
     -1.9163084942       3.3191429124       0.0000000000
      0.0000000000       0.0000000000       3.2266856000
Mn Be
6 2
direct
   0.1721730000000000    0.3443450000000000    0.2500000000000000 Mn
   0.6556550000000000    0.8278270000000000    0.2500000000000000 Mn
   0.1721730000000000    0.8278270000000000    0.2500000000000000 Mn
   0.8278270000000000    0.6556550000000000    0.7500000000000000 Mn
   0.3443450000000000    0.1721730000000000    0.7500000000000000 Mn
   0.8278270000000000    0.1721730000000000    0.7500000000000000 Mn
   0.3333333333333333    0.6666666666666666    0.7500000000000000 Be
   0.6666666666666666    0.3333333333333333    0.2500000000000000 Be
