Li6 Cr2
1.0
      5.5727348650       0.0000000000       0.0000000000
     -2.7863680946       4.8261295794       0.0000000000
      0.0000000000       0.0000000000       4.6545126500
Li Cr
6 2
direct
   0.1672140000000000    0.3344270000000000    0.2500000000000000 Li
   0.6655730000000000    0.8327860000000000    0.2500000000000000 Li
   0.1672140000000000    0.8327860000000000    0.2500000000000000 Li
   0.8327860000000000    0.6655730000000000    0.7500000000000000 Li
   0.3344270000000000    0.1672140000000000    0.7500000000000000 Li
   0.8327860000000000    0.1672140000000000    0.7500000000000000 Li
   0.3333333333333333    0.6666666666666666    0.7500000000000000 Cr
   0.6666666666666666    0.3333333333333333    0.2500000000000000 Cr
