Li3 Pd1
1.0
      3.3785793802       0.0000000000       1.9506237941
      1.1261928204       3.1853549463       1.9506237886
      0.0000000000       0.0000000000       3.9012466500
Li Pd
3 1
direct
   0.5000000000000000    0.5000000000000000    0.5000000000000000 Li
   0.2500000000000000    0.2500000000000000    0.2500000000000000 Li
   0.7500000000000000    0.7500000000000000    0.7500000000000000 Li
   0.0000000000000000    0.0000000000000000    0.0000000000000000 Pd
