Li3 Pd1
1.0
      3.1908805258       0.0000000000       1.8422558055
      1.0636265526       3.0083907826       1.8422558004
      0.0000000000       0.0000000000       3.6845107250
Li Pd
3 1
direct
   0.5000000000000000    0.5000000000000000    0.5000000000000000 Li
   0.2500000000000000    0.2500000000000000    0.2500000000000000 Li
   0.7500000000000000    0.7500000000000000    0.7500000000000000 Li
   0.0000000000000000    0.0000000000000000    0.0000000000000000 Pd
