Li3 Pd1
1.0
      3.0031816713       0.0000000000       1.7338878169
      1.0010602848       2.8314266189       1.7338878121
      0.0000000000       0.0000000000       3.4677748000
Li Pd
3 1
direct
   0.5000000000000000    0.5000000000000000    0.5000000000000000 Li
   0.2500000000000000    0.2500000000000000    0.2500000000000000 Li
   0.7500000000000000    0.7500000000000000    0.7500000000000000 Li
   0.0000000000000000    0.0000000000000000    0.0000000000000000 Pd
