Ce4 Cu4
1.0
      3.5697127000       0.0000000000       0.0000000000
     -0.0000000000       5.2263321000       0.0000000000
      0.0000000000       0.0000000000       5.9876694500
Ce Cu
4 4
direct
   0.7500000000000000    0.3536990000000000    0.3324790000000000 Ce
   0.2500000000000000    0.8536990000000000    0.1675210000000000 Ce
   0.2500000000000000    0.6463010000000000    0.6675210000000000 Ce
   0.7500000000000000    0.1463010000000000    0.8324790000000000 Ce
   0.2500000000000000    0.1050510000000000    0.5406560000000000 Cu
   0.7500000000000000    0.8949490000000000    0.4593440000000000 Cu
   0.2500000000000000    0.3949490000000000    0.0406560000000000 Cu
   0.7500000000000000    0.6050510000000000    0.9593440000000000 Cu
