Mn6 P3
1.0
      5.7731024145       0.0000000000       0.0000000000
     -2.8866962984       4.9997098602       0.0000000000
      0.0000000000       0.0000000000       3.0764572950
Mn P
6 3
direct
   0.6022499500000000    0.9999799000000000    0.5000000000000000 Mn
   0.3977517900000000    0.3977327100000000    0.5000000000000000 Mn
   0.9999988700000000    0.6022484200000000    0.5000000000000000 Mn
   0.0000013400000000    0.2553197100000000    0.0000000000000000 Mn
   0.7447098700000000    0.7447221500000000    0.0000000000000000 Mn
   0.2552855600000000    0.0000135900000000    0.0000000000000000 Mn
   0.6666666666666666    0.3333333333333333    0.0000000000000000 P
   0.3333333333333333    0.6666666666666666    0.0000000000000000 P
   0.0000052700000000    0.0000196500000000    0.5000000000000000 P
