Mn2 Zn6
1.0
      4.1044764825       0.0000000000       0.0000000000
     -2.0522377207       3.5545812036       0.0000000000
      0.0000000000       0.0000000000       3.2629552500
Mn Zn
2 6
direct
   0.6666666666666666    0.3333333333333333    0.2500000000000000 Mn
   0.3333333333333333    0.6666666666666666    0.7500000000000000 Mn
   0.8316080000000000    0.1683920000000000    0.7500000000000000 Zn
   0.3367840000000000    0.1683920000000000    0.7500000000000000 Zn
   0.8316080000000000    0.6632160000000000    0.7500000000000000 Zn
   0.1683920000000000    0.8316080000000000    0.2500000000000000 Zn
   0.6632160000000000    0.8316080000000000    0.2500000000000000 Zn
   0.1683920000000000    0.3367840000000000    0.2500000000000000 Zn
