K2 Rb6
1.0
      7.5791703825       0.0000000000       0.0000000000
     -3.7895845907       6.5637539872       0.0000000000
      0.0000000000       0.0000000000       6.2564424525
K Rb
2 6
direct
   0.6666666666666666    0.3333333333333333    0.2500000000000000 K
   0.3333333333333333    0.6666666666666666    0.7500000000000000 K
   0.8310022400000000    0.1689977600000000    0.7500000000000000 Rb
   0.3379965300000000    0.1689977600000000    0.7500000000000000 Rb
   0.8310022400000000    0.6620034700000000    0.7500000000000000 Rb
   0.1689977600000000    0.8310022400000000    0.2500000000000000 Rb
   0.6620034700000000    0.8310022400000000    0.2500000000000000 Rb
   0.1689977600000000    0.3379965300000000    0.2500000000000000 Rb
