K2 Rb6
1.0
      9.6002824845       0.0000000000       0.0000000000
     -4.8001404816       8.3140883838       0.0000000000
      0.0000000000       0.0000000000       7.9248271065
K Rb
2 6
direct
   0.6666666666666666    0.3333333333333333    0.2500000000000000 K
   0.3333333333333333    0.6666666666666666    0.7500000000000000 K
   0.8310022400000000    0.1689977600000000    0.7500000000000000 Rb
   0.3379965300000000    0.1689977600000000    0.7500000000000000 Rb
   0.8310022400000000    0.6620034700000000    0.7500000000000000 Rb
   0.1689977600000000    0.8310022400000000    0.2500000000000000 Rb
   0.6620034700000000    0.8310022400000000    0.2500000000000000 Rb
   0.1689977600000000    0.3379965300000000    0.2500000000000000 Rb
