K2 Rb6
1.0
      8.5897264335       0.0000000000       0.0000000000
     -4.2948625361       7.4389211855       0.0000000000
      0.0000000000       0.0000000000       7.0906347795
K Rb
2 6
direct
   0.6666666666666666    0.3333333333333333    0.2500000000000000 K
   0.3333333333333333    0.6666666666666666    0.7500000000000000 K
   0.8310022400000000    0.1689977600000000    0.7500000000000000 Rb
   0.3379965300000000    0.1689977600000000    0.7500000000000000 Rb
   0.8310022400000000    0.6620034700000000    0.7500000000000000 Rb
   0.1689977600000000    0.8310022400000000    0.2500000000000000 Rb
   0.6620034700000000    0.8310022400000000    0.2500000000000000 Rb
   0.1689977600000000    0.3379965300000000    0.2500000000000000 Rb
