Li2 O1
1.0
      2.2798423974       0.0000000000       1.3162679985
      0.7599472001       2.1494560009       1.3162680003
      0.0000000000       0.0000000000       2.6325352000
Li O
2 1
direct
   0.7500000000000000    0.7500000000000000    0.7500000000000000 Li
   0.2500000000000000    0.2500000000000000    0.2500000000000000 Li
   0.0000000000000000    0.0000000000000000    0.0000000000000000 O
