Li2 C2
1.0
      2.4087081668       0.0000000000       1.2057615570
      1.0789980903       2.6758896732       0.8533013114
      0.0000000000       0.0000000000       3.0087783675
Li C
2 2
direct
   0.7606944400000000    0.7393055600000000    0.7393055600000000 Li
   0.2393055600000000    0.2606944400000000    0.2606944400000000 Li
   0.0000000000000000    0.8697440600000000    0.1302559400000000 C
   0.0000000000000000    0.1302559400000000    0.8697440600000000 C
