Cu7 Si2
1.0
      3.2678144960       0.0000000000       0.0000000000
     -1.6339073473       2.8300103111       0.0000000000
      0.0000000000       0.0000000000       6.0699152000
Cu Si
7 2
direct
   0.3333333333333333    0.6666666666666666    0.1548620000000000 Cu
   0.6666666666666666    0.3333333333333333    0.8451379999999999 Cu
   0.3333333333333333    0.6666666666666666    0.4957580000000000 Cu
   0.6666666666666666    0.3333333333333333    0.5042420000000000 Cu
   0.0000000000000000    0.0000000000000000    0.3304700000000000 Cu
   0.0000000000000000    0.0000000000000000    0.6695300000000000 Cu
   0.0000000000000000    0.0000000000000000    0.0000000000000000 Cu
   0.3333333333333333    0.6666666666666666    0.8087050000000000 Si
   0.6666666666666666    0.3333333333333333    0.1912950000000000 Si
