Li1 Ga3
1.0
      3.2786398349       0.0000000000      -3.0153315008
     -0.6316417653       3.2172205158      -3.0153315008
      0.0000000000       0.0000000000       4.4544026790
Li Ga
1 3
direct
   0.0000000000000000    0.0000000000000000    0.0000000000000000 Li
   0.7500000000000000    0.2500000000000000    0.5000000000000000 Ga
   0.2500000000000000    0.7500000000000000    0.5000000000000000 Ga
   0.5000000000000000    0.5000000000000000    0.0000000000000000 Ga
