Li1 Ga3
1.0
      3.0964931774       0.0000000000      -2.8478130841
     -0.5965505562       3.0384860427      -2.8478130841
      0.0000000000       0.0000000000       4.2069358635
Li Ga
1 3
direct
   0.0000000000000000    0.0000000000000000    0.0000000000000000 Li
   0.7500000000000000    0.2500000000000000    0.5000000000000000 Ga
   0.2500000000000000    0.7500000000000000    0.5000000000000000 Ga
   0.5000000000000000    0.5000000000000000    0.0000000000000000 Ga
