Cu2 Se1
1.0
      3.2106388654       0.0000000000      -2.1367691772
     -0.8961142326       3.0498704537      -2.1838621610
      0.0000000000       0.0000000000       3.8566804950
Cu Se
2 1
direct
   0.3189080000000000    0.7083230000000000    0.6105850000000000 Cu
   0.9022610000000000    0.2916770000000000    0.6105850000000000 Cu
   0.9748310000000000    0.0000000000000000    0.9748310000000000 Se
