Cu2 Se1
1.0
      3.3890076912       0.0000000000      -2.2554785760
     -0.9458983566       3.2193077011      -2.3051878366
      0.0000000000       0.0000000000       4.0709405225
Cu Se
2 1
direct
   0.3189080000000000    0.7083230000000000    0.6105850000000000 Cu
   0.9022610000000000    0.2916770000000000    0.6105850000000000 Cu
   0.9748310000000000    0.0000000000000000    0.9748310000000000 Se
