Cu2 Se1
1.0
      3.0322700395       0.0000000000      -2.0180597785
     -0.8463301085       2.8804332063      -2.0625364854
      0.0000000000       0.0000000000       3.6424204675
Cu Se
2 1
direct
   0.3189080000000000    0.7083230000000000    0.6105850000000000 Cu
   0.9022610000000000    0.2916770000000000    0.6105850000000000 Cu
   0.9748310000000000    0.0000000000000000    0.9748310000000000 Se
