Cu2 Se1
1.0
      2.8539012137       0.0000000000      -1.8993503798
     -0.7965459845       2.7109959589      -1.9412108098
      0.0000000000       0.0000000000       3.4281604400
Cu Se
2 1
direct
   0.3189080000000000    0.7083230000000000    0.6105850000000000 Cu
   0.9022610000000000    0.2916770000000000    0.6105850000000000 Cu
   0.9748310000000000    0.0000000000000000    0.9748310000000000 Se
