Cu2 Se1
1.0
      2.6755323878       0.0000000000      -1.7806409810
     -0.7467618605       2.5415587114      -1.8198851342
      0.0000000000       0.0000000000       3.2139004125
Cu Se
2 1
direct
   0.3189080000000000    0.7083230000000000    0.6105850000000000 Cu
   0.9022610000000000    0.2916770000000000    0.6105850000000000 Cu
   0.9748310000000000    0.0000000000000000    0.9748310000000000 Se
