K6 Eu2
1.0
      7.3356498560       0.0000000000       0.0000000000
     -3.6678251819       6.3528589820       0.0000000000
      0.0000000000       0.0000000000       5.9571896000
K Eu
6 2
direct
   0.1683890000000000    0.3367780000000000    0.2500000000000000 K
   0.6632220000000000    0.8316110000000000    0.2500000000000000 K
   0.1683890000000000    0.8316110000000000    0.2500000000000000 K
   0.8316110000000000    0.6632220000000000    0.7500000000000000 K
   0.3367780000000000    0.1683890000000000    0.7500000000000000 K
   0.8316110000000000    0.1683890000000000    0.7500000000000000 K
   0.3333333333333333    0.6666666666666666    0.7500000000000000 Eu
   0.6666666666666666    0.3333333333333333    0.2500000000000000 Eu
