K3 Tb1
1.0
      4.8568807245       0.0000000000      -5.1128730729
     -0.7742065834       4.7947778403      -5.1128730729
      0.0000000000       0.0000000000       7.0520040720
K Tb
3 1
direct
   0.7500000000000000    0.2500000000000000    0.5000000000000000 K
   0.2500000000000000    0.7500000000000000    0.5000000000000000 K
   0.5000000000000000    0.5000000000000000    0.0000000000000000 K
   0.0000000000000000    0.0000000000000000    0.0000000000000000 Tb
