K3 Tb1
1.0
      4.5870540176       0.0000000000      -4.8288245688
     -0.7311951066       4.5284012936      -4.8288245688
      0.0000000000       0.0000000000       6.6602260680
K Tb
3 1
direct
   0.7500000000000000    0.2500000000000000    0.5000000000000000 K
   0.2500000000000000    0.7500000000000000    0.5000000000000000 K
   0.5000000000000000    0.5000000000000000    0.0000000000000000 K
   0.0000000000000000    0.0000000000000000    0.0000000000000000 Tb
