K3 Tb1
1.0
      4.0474006037       0.0000000000      -4.2607275607
     -0.6451721529       3.9956482003      -4.2607275607
      0.0000000000       0.0000000000       5.8766700600
K Tb
3 1
direct
   0.7500000000000000    0.2500000000000000    0.5000000000000000 K
   0.2500000000000000    0.7500000000000000    0.5000000000000000 K
   0.5000000000000000    0.5000000000000000    0.0000000000000000 K
   0.0000000000000000    0.0000000000000000    0.0000000000000000 Tb
