K3 Tb1
1.0
      5.1267074314       0.0000000000      -5.3969215769
     -0.8172180603       5.0611543870      -5.3969215769
      0.0000000000       0.0000000000       7.4437820760
K Tb
3 1
direct
   0.7500000000000000    0.2500000000000000    0.5000000000000000 K
   0.2500000000000000    0.7500000000000000    0.5000000000000000 K
   0.5000000000000000    0.5000000000000000    0.0000000000000000 K
   0.0000000000000000    0.0000000000000000    0.0000000000000000 Tb
