K3 Tb1
1.0
      4.3172273107       0.0000000000      -4.5447760648
     -0.6881836297       4.2620247470      -4.5447760648
      0.0000000000       0.0000000000       6.2684480640
K Tb
3 1
direct
   0.7500000000000000    0.2500000000000000    0.5000000000000000 K
   0.2500000000000000    0.7500000000000000    0.5000000000000000 K
   0.5000000000000000    0.5000000000000000    0.0000000000000000 K
   0.0000000000000000    0.0000000000000000    0.0000000000000000 Tb
