Cu13 Se8
1.0
      5.2587933002       0.0000000000       3.0361657275
      1.7529311001       4.9580378713       3.0361657275
      0.0000000000       0.0000000000       6.0723314550
Cu Se
13 8
direct
   0.7468250000000000    0.2531750000000000    0.2531750000000000 Cu
   0.2531750000000000    0.2531750000000000    0.7468250000000000 Cu
   0.2531750000000000    0.7468250000000000    0.2531750000000000 Cu
   0.7468250000000000    0.2531750000000000    0.7468250000000000 Cu
   0.7468250000000000    0.7468250000000000    0.2531750000000000 Cu
   0.2531750000000000    0.7468250000000000    0.7468250000000000 Cu
   0.9957930000000000    0.5042070000000000    0.5042070000000000 Cu
   0.5042070000000000    0.5042070000000000    0.9957930000000000 Cu
   0.5042070000000000    0.9957930000000000    0.5042070000000000 Cu
   0.9957930000000000    0.5042070000000000    0.9957930000000000 Cu
   0.5042070000000000    0.9957930000000000    0.9957930000000000 Cu
   0.9957930000000000    0.9957930000000000    0.5042070000000000 Cu
   0.0000000000000000    0.0000000000000000    0.0000000000000000 Cu
   0.1272520000000000    0.1272520000000000    0.1272520000000000 Se
   0.6182440000000000    0.1272520000000000    0.1272520000000000 Se
   0.1272520000000000    0.1272520000000000    0.6182440000000000 Se
   0.1272520000000000    0.6182440000000000    0.1272520000000000 Se
   0.6249230000000000    0.1252300000000000    0.6249230000000000 Se
   0.6249230000000000    0.6249230000000000    0.1252300000000000 Se
   0.1252300000000000    0.6249230000000000    0.6249230000000000 Se
   0.6249230000000000    0.6249230000000000    0.6249230000000000 Se
