Li2 Ga2
1.0
      2.8299990006       0.0000000000       1.6339012505
      0.9433334993       2.6681497472       1.6339012482
      0.0000000000       0.0000000000       3.2678017500
Li Ga
2 2
direct
   0.6250000000000000    0.6250000000000000    0.6250000000000000 Li
   0.3750000000000000    0.3750000000000000    0.3750000000000000 Li
   0.1250000000000000    0.1250000000000000    0.1250000000000000 Ga
   0.8750000000000000    0.8750000000000000    0.8750000000000000 Ga
