Li3 Tc1
1.0
      2.9481514253       0.0000000000      -2.9775635943
     -0.4987538575       2.9056567960      -2.9775635943
      0.0000000000       0.0000000000       4.1901648875
Li Tc
3 1
direct
   0.7500000000000000    0.2500000000000000    0.5000000000000000 Li
   0.2500000000000000    0.7500000000000000    0.5000000000000000 Li
   0.5000000000000000    0.5000000000000000    0.0000000000000000 Li
   0.0000000000000000    0.0000000000000000    0.0000000000000000 Tc
