Li3 Tc1
1.0
      2.7747307532       0.0000000000      -2.8024127946
     -0.4694153953       2.7347358080      -2.8024127946
      0.0000000000       0.0000000000       3.9436846000
Li Tc
3 1
direct
   0.7500000000000000    0.2500000000000000    0.5000000000000000 Li
   0.2500000000000000    0.7500000000000000    0.5000000000000000 Li
   0.5000000000000000    0.5000000000000000    0.0000000000000000 Li
   0.0000000000000000    0.0000000000000000    0.0000000000000000 Tc
