Li3 Tc1
1.0
      3.1215720974       0.0000000000      -3.1527143939
     -0.5280923197       3.0765777840      -3.1527143939
      0.0000000000       0.0000000000       4.4366451750
Li Tc
3 1
direct
   0.7500000000000000    0.2500000000000000    0.5000000000000000 Li
   0.2500000000000000    0.7500000000000000    0.5000000000000000 Li
   0.5000000000000000    0.5000000000000000    0.0000000000000000 Li
   0.0000000000000000    0.0000000000000000    0.0000000000000000 Tc
