Gd1 Zn1
1.0
      3.0462728485       0.0000000000       0.0000000000
     -0.0000000000       3.0462728485       0.0000000000
      0.0000000000       0.0000000000       3.0462728485
Gd Zn
1 1
direct
   0.0000000000000000    0.0000000000000000    0.0000000000000000 Gd
   0.5000000000000000    0.5000000000000000    0.5000000000000000 Zn
