K1 C2
1.0
      3.6927800016       0.0000000000      -1.4250616133
     -1.3374061329       3.1375863452      -2.0085620488
      0.0000000000       0.0000000000       3.9582097900
K C
1 2
direct
   0.0000000000000000    0.0000000000000000    0.0000000000000000 K
   0.6199220000000000    0.5000000000000000    0.1199220000000000 C
   0.3800780000000000    0.5000000000000000    0.8800780000000000 C
