K1 C2
1.0
      3.9100023546       0.0000000000      -1.5088887670
     -1.4160770819       3.3221502479      -2.1267127575
      0.0000000000       0.0000000000       4.1910456600
K C
1 2
direct
   0.0000000000000000    0.0000000000000000    0.0000000000000000 K
   0.6199220000000000    0.5000000000000000    0.1199220000000000 C
   0.3800780000000000    0.5000000000000000    0.8800780000000000 C
