K1 C2
1.0
      3.2583352955       0.0000000000      -1.2574073058
     -1.1800642349       2.7684585399      -1.7722606313
      0.0000000000       0.0000000000       3.4925380500
K C
1 2
direct
   0.0000000000000000    0.0000000000000000    0.0000000000000000 K
   0.6199220000000000    0.5000000000000000    0.1199220000000000 C
   0.3800780000000000    0.5000000000000000    0.8800780000000000 C
