K1 C2
1.0
      3.4755576485       0.0000000000      -1.3412344596
     -1.2587351839       2.9530224425      -1.8904113400
      0.0000000000       0.0000000000       3.7253739200
K C
1 2
direct
   0.0000000000000000    0.0000000000000000    0.0000000000000000 K
   0.6199220000000000    0.5000000000000000    0.1199220000000000 C
   0.3800780000000000    0.5000000000000000    0.8800780000000000 C
