K1 C2
1.0
      4.1272247076       0.0000000000      -1.5927159207
     -1.4947480309       3.5067141505      -2.2448634663
      0.0000000000       0.0000000000       4.4238815300
K C
1 2
direct
   0.0000000000000000    0.0000000000000000    0.0000000000000000 K
   0.6199220000000000    0.5000000000000000    0.1199220000000000 C
   0.3800780000000000    0.5000000000000000    0.8800780000000000 C
