Li2 F6
1.0
      3.5346457280       0.0000000000       0.0000000000
     -1.7673221919       3.0610933819       0.0000000000
      0.0000000000       0.0000000000       3.7224168000
Li F
2 6
direct
   0.6666666666666666    0.3333333333333333    0.2500000000000000 Li
   0.3333333333333333    0.6666666666666666    0.7500000000000000 Li
   0.8312340000000000    0.1687660000000000    0.7500000000000000 F
   0.3375320000000000    0.1687660000000000    0.7500000000000000 F
   0.8312340000000000    0.6624679999999999    0.7500000000000000 F
   0.1687660000000000    0.8312340000000000    0.2500000000000000 F
   0.6624679999999999    0.8312340000000000    0.2500000000000000 F
   0.1687660000000000    0.3375320000000000    0.2500000000000000 F
