Tm1 Zn1
1.0
      3.3190472810       0.0000000000       0.0000000000
     -0.0000000000       3.3190472810       0.0000000000
      0.0000000000       0.0000000000       3.3190472810
Tm Zn
1 1
direct
   0.0000000000000000    0.0000000000000000    0.0000000000000000 Tm
   0.5000000000000000    0.5000000000000000    0.5000000000000000 Zn
