Cu1 Br1
1.0
      2.9914491428       0.0000000000      -1.6242885864
     -1.0587852852       2.7978101604      -1.6242885864
      0.0000000000       0.0000000000       3.4039802270
Cu Br
1 1
direct
   0.2500000000000000    0.7500000000000000    0.5000000000000000 Cu
   0.0000000000000000    0.0000000000000000    0.0000000000000000 Br
