Cu1 Br1
1.0
      3.3433843360       0.0000000000      -1.8153813613
     -1.1833482599       3.1269642969      -1.8153813613
      0.0000000000       0.0000000000       3.8044484890
Cu Br
1 1
direct
   0.2500000000000000    0.7500000000000000    0.5000000000000000 Cu
   0.0000000000000000    0.0000000000000000    0.0000000000000000 Br
