Cu1 Br1
1.0
      2.6395139495       0.0000000000      -1.4331958116
     -0.9342223104       2.4686560239      -1.4331958116
      0.0000000000       0.0000000000       3.0035119650
Cu Br
1 1
direct
   0.2500000000000000    0.7500000000000000    0.5000000000000000 Cu
   0.0000000000000000    0.0000000000000000    0.0000000000000000 Br
