Cu1 Br1
1.0
      3.1674167394       0.0000000000      -1.7198349739
     -1.1210667725       2.9623872287      -1.7198349739
      0.0000000000       0.0000000000       3.6042143580
Cu Br
1 1
direct
   0.2500000000000000    0.7500000000000000    0.5000000000000000 Cu
   0.0000000000000000    0.0000000000000000    0.0000000000000000 Br
