Cu1 Br1
1.0
      2.8154815461       0.0000000000      -1.5287421990
     -0.9965037978       2.6332330922      -1.5287421990
      0.0000000000       0.0000000000       3.2037460960
Cu Br
1 1
direct
   0.2500000000000000    0.7500000000000000    0.5000000000000000 Cu
   0.0000000000000000    0.0000000000000000    0.0000000000000000 Br
