Cu3 O2
1.0
      3.4619392977       0.0000000000      -2.7534549175
     -0.8055436017       3.3669159786      -2.7534549175
      0.0000000000       0.0000000000       4.4234079265
Cu O
3 2
direct
   0.2500000000000000    0.7500000000000000    0.5000000000000000 Cu
   0.7500000000000000    0.2500000000000000    0.5000000000000000 Cu
   0.0000000000000000    0.0000000000000000    0.0000000000000000 Cu
   0.0000000000000000    0.5000000000000000    0.5000000000000000 O
   0.5000000000000000    0.0000000000000000    0.5000000000000000 O
