Cu3 O2
1.0
      2.9153173034       0.0000000000      -2.3186988779
     -0.6783525067       2.8352976662      -2.3186988779
      0.0000000000       0.0000000000       3.7249750960
Cu O
3 2
direct
   0.2500000000000000    0.7500000000000000    0.5000000000000000 Cu
   0.7500000000000000    0.2500000000000000    0.5000000000000000 Cu
   0.0000000000000000    0.0000000000000000    0.0000000000000000 Cu
   0.0000000000000000    0.5000000000000000    0.5000000000000000 O
   0.5000000000000000    0.0000000000000000    0.5000000000000000 O
