Cu3 O2
1.0
      2.7331099719       0.0000000000      -2.1737801981
     -0.6359554750       2.6580915621      -2.1737801981
      0.0000000000       0.0000000000       3.4921641525
Cu O
3 2
direct
   0.2500000000000000    0.7500000000000000    0.5000000000000000 Cu
   0.7500000000000000    0.2500000000000000    0.5000000000000000 Cu
   0.0000000000000000    0.0000000000000000    0.0000000000000000 Cu
   0.0000000000000000    0.5000000000000000    0.5000000000000000 O
   0.5000000000000000    0.0000000000000000    0.5000000000000000 O
