Cu3 O2
1.0
      3.2797319663       0.0000000000      -2.6085362377
     -0.7631465701       3.1897098745      -2.6085362377
      0.0000000000       0.0000000000       4.1905969830
Cu O
3 2
direct
   0.2500000000000000    0.7500000000000000    0.5000000000000000 Cu
   0.7500000000000000    0.2500000000000000    0.5000000000000000 Cu
   0.0000000000000000    0.0000000000000000    0.0000000000000000 Cu
   0.0000000000000000    0.5000000000000000    0.5000000000000000 O
   0.5000000000000000    0.0000000000000000    0.5000000000000000 O
