Cu3 O2
1.0
      3.0975246348       0.0000000000      -2.4636175578
     -0.7207495384       3.0125037703      -2.4636175578
      0.0000000000       0.0000000000       3.9577860395
Cu O
3 2
direct
   0.2500000000000000    0.7500000000000000    0.5000000000000000 Cu
   0.7500000000000000    0.2500000000000000    0.5000000000000000 Cu
   0.0000000000000000    0.0000000000000000    0.0000000000000000 Cu
   0.0000000000000000    0.5000000000000000    0.5000000000000000 O
   0.5000000000000000    0.0000000000000000    0.5000000000000000 O
