Pu2 Cu4
1.0
      4.4653277862       0.0000000000      -1.1515868373
     -1.1491615293       3.1872289314      -3.1283068903
      0.0000000000       0.0000000000       4.6114319340
Pu Cu
2 4
direct
   0.7986799999999999    0.5486799999999999    0.2500000000000000 Pu
   0.2013200000000000    0.4513200000000000    0.7500000000000000 Pu
   0.2212770000000000    0.1633220000000000    0.0579550000000000 Cu
   0.7787230000000001    0.8366780000000000    0.9420450000000000 Cu
   0.6053680000000000    0.1633220000000000    0.4420450000000000 Cu
   0.3946320000000000    0.8366780000000000    0.5579550000000000 Cu
