Sc1 Cu3
1.0
      3.3449740947       0.0000000000       1.9341572533
      1.1183919653       3.1510731395       1.9334637487
      0.0000000000       0.0000000000       3.8612313270
Sc Cu
1 3
direct
   0.7500001300000000    0.7500014900000000    0.7499990200000000 Sc
   0.2500009400000000    0.2499984300000000    0.2499983600000000 Cu
   0.0001658800000000    0.9996720600000000    0.9997692100000000 Cu
   0.4998350600000000    0.5003290100000000    0.5002334200000000 Cu
