Sc1 Cu3
1.0
      3.1591422005       0.0000000000       1.8267040726
      1.0562590783       2.9760135207       1.8260490960
      0.0000000000       0.0000000000       3.6467184755
Sc Cu
1 3
direct
   0.7500001300000000    0.7500014900000000    0.7499990200000000 Sc
   0.2500009400000000    0.2499984300000000    0.2499983600000000 Cu
   0.0001658800000000    0.9996720600000000    0.9997692100000000 Cu
   0.4998350600000000    0.5003290100000000    0.5002334200000000 Cu
