Sc1 Cu3
1.0
      3.5308059888       0.0000000000       2.0416104341
      1.1805248522       3.3261327584       2.0408784014
      0.0000000000       0.0000000000       4.0757441785
Sc Cu
1 3
direct
   0.7500001300000000    0.7500014900000000    0.7499990200000000 Sc
   0.2500009400000000    0.2499984300000000    0.2499983600000000 Cu
   0.0001658800000000    0.9996720600000000    0.9997692100000000 Cu
   0.4998350600000000    0.5003290100000000    0.5002334200000000 Cu
