Th1 Zn2
1.0
      4.0673508480       0.0000000000       0.0000000000
     -2.0336758824       3.5224284594       0.0000000000
      0.0000000000       0.0000000000       3.2739538950
Th Zn
1 2
direct
   0.0000000000000000    0.0000000000000000    0.0000000000000000 Th
   0.6666666666666666    0.3333333333333333    0.5000000000000000 Zn
   0.3333333333333333    0.6666666666666666    0.5000000000000000 Zn
