Th1 Zn2
1.0
      3.6154229760       0.0000000000       0.0000000000
     -1.8077118954       3.1310475194       0.0000000000
      0.0000000000       0.0000000000       2.9101812400
Th Zn
1 2
direct
   0.0000000000000000    0.0000000000000000    0.0000000000000000 Th
   0.6666666666666666    0.3333333333333333    0.5000000000000000 Zn
   0.3333333333333333    0.6666666666666666    0.5000000000000000 Zn
