Rb2 Zn26
1.0
      7.1170005025       0.0000000000       4.1090022802
      2.3723338267       6.7099724104       4.1090022832
      0.0000000000       0.0000000000       8.2180035950
Rb Zn
2 26
direct
   0.7500000000000000    0.7500000000000000    0.7500000000000000 Rb
   0.2500000000000000    0.2500000000000000    0.2500000000000000 Rb
   0.5000000000000000    0.5000000000000000    0.5000000000000000 Zn
   0.0000000000000000    0.0000000000000000    0.0000000000000000 Zn
   0.2017075100000000    0.7982924900000000    0.4385178900000000 Zn
   0.7017075100000000    0.0614821100000000    0.9385178900000000 Zn
   0.9385178900000000    0.2982924900000000    0.7017075100000000 Zn
   0.7017075100000000    0.9385178900000000    0.2982924900000000 Zn
   0.0614821100000000    0.2982924900000000    0.9385178900000000 Zn
   0.0614821100000000    0.9385178900000000    0.7017075100000000 Zn
   0.9385178900000000    0.0614821100000000    0.2982924900000000 Zn
   0.4385178900000000    0.2017075100000000    0.7982924900000000 Zn
   0.7982924900000000    0.4385178900000000    0.2017075100000000 Zn
   0.5614821100000000    0.2017075100000000    0.4385178900000000 Zn
   0.7982924900000000    0.5614821100000000    0.4385178900000000 Zn
   0.5614821100000000    0.7982924900000000    0.2017075100000000 Zn
   0.4385178900000000    0.7982924900000000    0.5614821100000000 Zn
   0.2017075100000000    0.4385178900000000    0.5614821100000000 Zn
   0.2017075100000000    0.5614821100000000    0.7982924900000000 Zn
   0.9385178900000000    0.7017075100000000    0.0614821100000000 Zn
   0.2982924900000000    0.9385178900000000    0.0614821100000000 Zn
   0.2982924900000000    0.7017075100000000    0.9385178900000000 Zn
   0.7017075100000000    0.2982924900000000    0.0614821100000000 Zn
   0.0614821100000000    0.7017075100000000    0.2982924900000000 Zn
   0.2982924900000000    0.0614821100000000    0.7017075100000000 Zn
   0.4385178900000000    0.5614821100000000    0.2017075100000000 Zn
   0.5614821100000000    0.4385178900000000    0.7982924900000000 Zn
   0.7982924900000000    0.2017075100000000    0.5614821100000000 Zn
