Gd1 Zn1
1.0
      3.2254653690       0.0000000000       0.0000000000
     -0.0000000000       3.2254653690       0.0000000000
      0.0000000000       0.0000000000       3.2254653690
Gd Zn
1 1
direct
   0.0000000000000000    0.0000000000000000    0.0000000000000000 Gd
   0.5000000000000000    0.5000000000000000    0.5000000000000000 Zn
