K2 Pt6
1.0
      6.2003671185       0.0000000000       0.0000000000
     -3.1001837776       5.3696753113       0.0000000000
      0.0000000000       0.0000000000       4.3536514500
K Pt
2 6
direct
   0.6666666666666666    0.3333333333333333    0.2500000000000000 K
   0.3333333333333333    0.6666666666666666    0.7500000000000000 K
   0.8612550000000000    0.1387450000000000    0.7500000000000000 Pt
   0.2774900000000000    0.1387450000000000    0.7500000000000000 Pt
   0.8612550000000000    0.7225100000000000    0.7500000000000000 Pt
   0.1387450000000000    0.8612550000000000    0.2500000000000000 Pt
   0.7225100000000000    0.8612550000000000    0.2500000000000000 Pt
   0.1387450000000000    0.2774900000000000    0.2500000000000000 Pt
