K2 Pt6
1.0
      4.8950266725       0.0000000000       0.0000000000
     -2.4475135086       4.2392173511       0.0000000000
      0.0000000000       0.0000000000       3.4370932500
K Pt
2 6
direct
   0.6666666666666666    0.3333333333333333    0.2500000000000000 K
   0.3333333333333333    0.6666666666666666    0.7500000000000000 K
   0.8612550000000000    0.1387450000000000    0.7500000000000000 Pt
   0.2774900000000000    0.1387450000000000    0.7500000000000000 Pt
   0.8612550000000000    0.7225100000000000    0.7500000000000000 Pt
   0.1387450000000000    0.8612550000000000    0.2500000000000000 Pt
   0.7225100000000000    0.8612550000000000    0.2500000000000000 Pt
   0.1387450000000000    0.2774900000000000    0.2500000000000000 Pt
