Li1 Si3
1.0
      2.5905423842       0.0000000000      -2.5209754683
     -0.4617894384       2.5490508742      -2.5209754683
      0.0000000000       0.0000000000       3.6147236625
Li Si
1 3
direct
   0.0000000000000000    0.0000000000000000    0.0000000000000000 Li
   0.7500000000000000    0.2500000000000000    0.5000000000000000 Si
   0.2500000000000000    0.7500000000000000    0.5000000000000000 Si
   0.5000000000000000    0.5000000000000000    0.0000000000000000 Si
