Li1 Si3
1.0
      2.9359480355       0.0000000000      -2.8571055307
     -0.5233613635       2.8889243241      -2.8571055307
      0.0000000000       0.0000000000       4.0966868175
Li Si
1 3
direct
   0.0000000000000000    0.0000000000000000    0.0000000000000000 Li
   0.7500000000000000    0.2500000000000000    0.5000000000000000 Si
   0.2500000000000000    0.7500000000000000    0.5000000000000000 Si
   0.5000000000000000    0.5000000000000000    0.0000000000000000 Si
