Li1 Si3
1.0
      3.1086508611       0.0000000000      -3.0251705620
     -0.5541473260       3.0588610490      -3.0251705620
      0.0000000000       0.0000000000       4.3376683950
Li Si
1 3
direct
   0.0000000000000000    0.0000000000000000    0.0000000000000000 Li
   0.7500000000000000    0.2500000000000000    0.5000000000000000 Si
   0.2500000000000000    0.7500000000000000    0.5000000000000000 Si
   0.5000000000000000    0.5000000000000000    0.0000000000000000 Si
