Li1 Mg1
1.0
      2.4047284160       0.0000000000       0.0000000000
     -0.8215501701       2.2600385113       0.0000000000
      0.0000000000       0.0000000000       3.9107304800
Li Mg
1 1
direct
   0.0000000000000000    0.0000000000000000    0.0000000000000000 Li
   0.5000000000000000    0.5000000000000000    0.5000000000000000 Mg
