Li1 Mg1
1.0
      2.5550239420       0.0000000000       0.0000000000
     -0.8728970557       2.4012909183       0.0000000000
      0.0000000000       0.0000000000       4.1551511350
Li Mg
1 1
direct
   0.0000000000000000    0.0000000000000000    0.0000000000000000 Li
   0.5000000000000000    0.5000000000000000    0.5000000000000000 Mg
