Li1 Mg1
1.0
      2.2544328900       0.0000000000       0.0000000000
     -0.7702032845       2.1187861044       0.0000000000
      0.0000000000       0.0000000000       3.6663098250
Li Mg
1 1
direct
   0.0000000000000000    0.0000000000000000    0.0000000000000000 Li
   0.5000000000000000    0.5000000000000000    0.5000000000000000 Mg
