Li1 Mg1
1.0
      2.7053194680       0.0000000000       0.0000000000
     -0.9242439414       2.5425433252       0.0000000000
      0.0000000000       0.0000000000       4.3995717900
Li Mg
1 1
direct
   0.0000000000000000    0.0000000000000000    0.0000000000000000 Li
   0.5000000000000000    0.5000000000000000    0.5000000000000000 Mg
