Li6 As2
1.0
      3.6902503500       0.0000000000       0.0000000000
     -1.8451255986       3.1958512471       0.0000000000
      0.0000000000       0.0000000000       6.5837676500
Li As
6 2
direct
   0.0000000000000000    0.0000000000000000    0.2500000000000000 Li
   0.0000000000000000    0.0000000000000000    0.7500000000000000 Li
   0.3333333333333333    0.6666666666666666    0.5852150000000000 Li
   0.6666666666666666    0.3333333333333333    0.0852150000000000 Li
   0.6666666666666666    0.3333333333333333    0.4147850000000000 Li
   0.3333333333333333    0.6666666666666666    0.9147850000000000 Li
   0.3333333333333333    0.6666666666666666    0.2500000000000000 As
   0.6666666666666666    0.3333333333333333    0.7500000000000000 As
