K1 Nd3
1.0
      3.9108762724       0.0000000000      -3.6375419793
     -0.7420054891       3.8398412822      -3.6375419793
      0.0000000000       0.0000000000       5.3410359360
K Nd
1 3
direct
   0.0000000000000000    0.0000000000000000    0.0000000000000000 K
   0.7500000000000000    0.2500000000000000    0.5000000000000000 Nd
   0.2500000000000000    0.7500000000000000    0.5000000000000000 Nd
   0.5000000000000000    0.5000000000000000    0.0000000000000000 Nd
