K1 Nd3
1.0
      4.6441655735       0.0000000000      -4.3195811005
     -0.8811315183       4.5598115226      -4.3195811005
      0.0000000000       0.0000000000       6.3424801740
K Nd
1 3
direct
   0.0000000000000000    0.0000000000000000    0.0000000000000000 K
   0.7500000000000000    0.2500000000000000    0.5000000000000000 Nd
   0.2500000000000000    0.7500000000000000    0.5000000000000000 Nd
   0.5000000000000000    0.5000000000000000    0.0000000000000000 Nd
