K1 Nd3
1.0
      4.3997358065       0.0000000000      -4.0922347268
     -0.8347561752       4.3198214425      -4.0922347268
      0.0000000000       0.0000000000       6.0086654280
K Nd
1 3
direct
   0.0000000000000000    0.0000000000000000    0.0000000000000000 K
   0.7500000000000000    0.2500000000000000    0.5000000000000000 Nd
   0.2500000000000000    0.7500000000000000    0.5000000000000000 Nd
   0.5000000000000000    0.5000000000000000    0.0000000000000000 Nd
