K1 Nd3
1.0
      4.1553060394       0.0000000000      -3.8648883530
     -0.7883808321       4.0798313623      -3.8648883530
      0.0000000000       0.0000000000       5.6748506820
K Nd
1 3
direct
   0.0000000000000000    0.0000000000000000    0.0000000000000000 K
   0.7500000000000000    0.2500000000000000    0.5000000000000000 Nd
   0.2500000000000000    0.7500000000000000    0.5000000000000000 Nd
   0.5000000000000000    0.5000000000000000    0.0000000000000000 Nd
