K1 Nd3
1.0
      3.6664465054       0.0000000000      -3.4101956056
     -0.6956301460       3.5998512021      -3.4101956056
      0.0000000000       0.0000000000       5.0072211900
K Nd
1 3
direct
   0.0000000000000000    0.0000000000000000    0.0000000000000000 K
   0.7500000000000000    0.2500000000000000    0.5000000000000000 Nd
   0.2500000000000000    0.7500000000000000    0.5000000000000000 Nd
   0.5000000000000000    0.5000000000000000    0.0000000000000000 Nd
