Y2 Cu4
1.0
      3.8836730260       0.0000000000       2.2422396670
      1.2945576753       3.6615620435       2.2422396670
      0.0000000000       0.0000000000       4.4844793340
Y Cu
2 4
direct
   0.5000000000000000    0.5000000000000000    0.5000000000000000 Y
   0.7500000000000000    0.7500000000000000    0.7500000000000000 Y
   0.6250000000000000    0.1250000000000000    0.1250000000000000 Cu
   0.1250000000000000    0.6250000000000000    0.1250000000000000 Cu
   0.1250000000000000    0.1250000000000000    0.6250000000000000 Cu
   0.1250000000000000    0.1250000000000000    0.1250000000000000 Cu
