Y2 Cu4
1.0
      4.3405757349       0.0000000000       2.5060325690
      1.4468585783       4.0923340486       2.5060325690
      0.0000000000       0.0000000000       5.0120651380
Y Cu
2 4
direct
   0.5000000000000000    0.5000000000000000    0.5000000000000000 Y
   0.7500000000000000    0.7500000000000000    0.7500000000000000 Y
   0.6250000000000000    0.1250000000000000    0.1250000000000000 Cu
   0.1250000000000000    0.6250000000000000    0.1250000000000000 Cu
   0.1250000000000000    0.1250000000000000    0.6250000000000000 Cu
   0.1250000000000000    0.1250000000000000    0.1250000000000000 Cu
