Y2 Cu4
1.0
      3.4267703171       0.0000000000       1.9784467650
      1.1422567724       3.2307900383       1.9784467650
      0.0000000000       0.0000000000       3.9568935300
Y Cu
2 4
direct
   0.5000000000000000    0.5000000000000000    0.5000000000000000 Y
   0.7500000000000000    0.7500000000000000    0.7500000000000000 Y
   0.6250000000000000    0.1250000000000000    0.1250000000000000 Cu
   0.1250000000000000    0.6250000000000000    0.1250000000000000 Cu
   0.1250000000000000    0.1250000000000000    0.6250000000000000 Cu
   0.1250000000000000    0.1250000000000000    0.1250000000000000 Cu
