Y2 Cu4
1.0
      4.1121243805       0.0000000000       2.3741361180
      1.3707081268       3.8769480460       2.3741361180
      0.0000000000       0.0000000000       4.7482722360
Y Cu
2 4
direct
   0.5000000000000000    0.5000000000000000    0.5000000000000000 Y
   0.7500000000000000    0.7500000000000000    0.7500000000000000 Y
   0.6250000000000000    0.1250000000000000    0.1250000000000000 Cu
   0.1250000000000000    0.6250000000000000    0.1250000000000000 Cu
   0.1250000000000000    0.1250000000000000    0.6250000000000000 Cu
   0.1250000000000000    0.1250000000000000    0.1250000000000000 Cu
