Mg2 Se2
1.0
      3.3772802000       0.0000000000       0.0000000000
     -1.6887532927       2.9244993011       0.0000004291
      0.0000000000       0.0000000000       5.4533742640
Mg Se
2 2
direct
   0.6666666666666666    0.3333333333333333    0.4983122400000000 Mg
   0.3333333333333333    0.6666666666666666    0.9983122400000000 Mg
   0.6666666666666666    0.3333672300000000    0.8766877600000000 Se
   0.3333333333333333    0.6666666666666666    0.3766877600000000 Se
