Mg2 Se2
1.0
      4.0105202375       0.0000000000       0.0000000000
     -2.0053945351       3.4728429201       0.0000005095
      0.0000000000       0.0000000000       6.4758819385
Mg Se
2 2
direct
   0.6666666666666666    0.3333333333333333    0.4983122400000000 Mg
   0.3333333333333333    0.6666666666666666    0.9983122400000000 Mg
   0.6666666666666666    0.3333672300000000    0.8766877600000000 Se
   0.3333333333333333    0.6666666666666666    0.3766877600000000 Se
