Mg2 Se2
1.0
      3.1662001875       0.0000000000       0.0000000000
     -1.5832062119       2.7417180948       0.0000004023
      0.0000000000       0.0000000000       5.1125383725
Mg Se
2 2
direct
   0.6666666666666666    0.3333333333333333    0.4983122400000000 Mg
   0.3333333333333333    0.6666666666666666    0.9983122400000000 Mg
   0.6666666666666666    0.3333672300000000    0.8766877600000000 Se
   0.3333333333333333    0.6666666666666666    0.3766877600000000 Se
