K1 Bi3
1.0
      3.8042647500       0.0000000000       0.0000000000
     -0.0000000000       3.8042647500       0.0000000000
      0.0000000000       0.0000000000       3.8042647500
K Bi
1 3
direct
   0.0000000000000000    0.0000000000000000    0.0000000000000000 K
   0.0000000000000000    0.5000000000000000    0.5000000000000000 Bi
   0.5000000000000000    0.0000000000000000    0.5000000000000000 Bi
   0.5000000000000000    0.5000000000000000    0.0000000000000000 Bi
