Cu4 Te2
1.0
      3.8736130230       0.0000000000       0.0000000000
     -1.9368069307       3.3546470403       0.0000000000
      0.0000000000       0.0000000000       7.6711293000
Cu Te
4 2
direct
   0.3333333333333333    0.6666666666666666    0.1519540000000000 Cu
   0.6666666666666666    0.3333333333333333    0.1519540000000000 Cu
   0.6666666666666666    0.3333333333333333    0.8480460000000000 Cu
   0.3333333333333333    0.6666666666666666    0.8480460000000000 Cu
   0.0000000000000000    0.0000000000000000    0.2661880000000000 Te
   0.0000000000000000    0.0000000000000000    0.7338120000000000 Te
