Cu4 Te2
1.0
      4.0888137465       0.0000000000       0.0000000000
     -2.0444073158       3.5410163203       0.0000000000
      0.0000000000       0.0000000000       8.0973031500
Cu Te
4 2
direct
   0.3333333333333333    0.6666666666666666    0.1519540000000000 Cu
   0.6666666666666666    0.3333333333333333    0.1519540000000000 Cu
   0.6666666666666666    0.3333333333333333    0.8480460000000000 Cu
   0.3333333333333333    0.6666666666666666    0.8480460000000000 Cu
   0.0000000000000000    0.0000000000000000    0.2661880000000000 Te
   0.0000000000000000    0.0000000000000000    0.7338120000000000 Te
