Mg3 Cl6
1.0
      2.7286007250       0.0000000000       0.0000000000
     -1.3643003625       2.3630375446       0.0000000000
      0.0000000000       0.0000000000      13.6399201350
Mg Cl
3 6
direct
   0.0000000000000000    0.0000000000000000    0.0000000000000000 Mg
   0.6666666666666666    0.3333333333333333    0.3333333333333333 Mg
   0.3333333333333333    0.6666666666666666    0.6666666666666666 Mg
   0.0000000000000000    0.0000000000000000    0.2580665400000000 Cl
   0.6666666666666666    0.3333333333333333    0.0752667900000000 Cl
   0.6666666666666666    0.3333333333333333    0.5913998700000000 Cl
   0.3333333333333333    0.6666666666666666    0.4086001300000000 Cl
   0.3333333333333333    0.6666666666666666    0.9247332100000000 Cl
   0.0000000000000000    0.0000000000000000    0.7419334600000000 Cl
