K1 Sr3
1.0
      4.7964252271       0.0000000000       2.7692173960
      1.5988084090       4.5221130714       2.7692173960
      0.0000000000       0.0000000000       5.5384347920
K Sr
1 3
direct
   0.0000000000000000    0.0000000000000000    0.0000000000000000 K
   0.2500000000000000    0.2500000000000000    0.2500000000000000 Sr
   0.7500000000000000    0.7500000000000000    0.7500000000000000 Sr
   0.5000000000000000    0.5000000000000000    0.5000000000000000 Sr
