K1 Sr3
1.0
      5.3959783805       0.0000000000       3.1153695705
      1.7986594602       5.0873772053       3.1153695705
      0.0000000000       0.0000000000       6.2307391410
K Sr
1 3
direct
   0.0000000000000000    0.0000000000000000    0.0000000000000000 K
   0.2500000000000000    0.2500000000000000    0.2500000000000000 Sr
   0.7500000000000000    0.7500000000000000    0.7500000000000000 Sr
   0.5000000000000000    0.5000000000000000    0.5000000000000000 Sr
