K1 Sr3
1.0
      5.6957549572       0.0000000000       3.2884456578
      1.8985849857       5.3700092722       3.2884456578
      0.0000000000       0.0000000000       6.5768913155
K Sr
1 3
direct
   0.0000000000000000    0.0000000000000000    0.0000000000000000 K
   0.2500000000000000    0.2500000000000000    0.2500000000000000 Sr
   0.7500000000000000    0.7500000000000000    0.7500000000000000 Sr
   0.5000000000000000    0.5000000000000000    0.5000000000000000 Sr
