K1 Sr3
1.0
      4.4966486504       0.0000000000       2.5961413088
      1.4988828835       4.2394810044       2.5961413088
      0.0000000000       0.0000000000       5.1922826175
K Sr
1 3
direct
   0.0000000000000000    0.0000000000000000    0.0000000000000000 K
   0.2500000000000000    0.2500000000000000    0.2500000000000000 Sr
   0.7500000000000000    0.7500000000000000    0.7500000000000000 Sr
   0.5000000000000000    0.5000000000000000    0.5000000000000000 Sr
