K1 Sr3
1.0
      5.0962018038       0.0000000000       2.9422934833
      1.6987339346       4.8047451383       2.9422934833
      0.0000000000       0.0000000000       5.8845869665
K Sr
1 3
direct
   0.0000000000000000    0.0000000000000000    0.0000000000000000 K
   0.2500000000000000    0.2500000000000000    0.2500000000000000 Sr
   0.7500000000000000    0.7500000000000000    0.7500000000000000 Sr
   0.5000000000000000    0.5000000000000000    0.5000000000000000 Sr
