In4 Cu2
1.0
      4.4555890142       0.0000000000      -0.9152518068
     -2.9628802638       3.3277040142      -0.9152518068
      0.0000000000       0.0000000000       4.5486216960
In Cu
4 2
direct
   0.1528710000000000    0.6528710000000000    0.8057410000000000 In
   0.8471290000000000    0.3471290000000000    0.1942590000000000 In
   0.3471290000000000    0.1528710000000000    0.5000000000000000 In
   0.6528710000000000    0.8471290000000000    0.5000000000000000 In
   0.0000000000000000    0.0000000000000000    0.0000000000000000 Cu
   0.5000000000000000    0.5000000000000000    0.0000000000000000 Cu
