In4 Cu2
1.0
      4.7340633276       0.0000000000      -0.9724550447
     -3.1480602803       3.5356855151      -0.9724550447
      0.0000000000       0.0000000000       4.8329105520
In Cu
4 2
direct
   0.1528710000000000    0.6528710000000000    0.8057410000000000 In
   0.8471290000000000    0.3471290000000000    0.1942590000000000 In
   0.3471290000000000    0.1528710000000000    0.5000000000000000 In
   0.6528710000000000    0.8471290000000000    0.5000000000000000 In
   0.0000000000000000    0.0000000000000000    0.0000000000000000 Cu
   0.5000000000000000    0.5000000000000000    0.0000000000000000 Cu
