In4 Cu2
1.0
      5.2910119544       0.0000000000      -1.0868615206
     -3.5184203132       3.9516485168      -1.0868615206
      0.0000000000       0.0000000000       5.4014882640
In Cu
4 2
direct
   0.1528710000000000    0.6528710000000000    0.8057410000000000 In
   0.8471290000000000    0.3471290000000000    0.1942590000000000 In
   0.3471290000000000    0.1528710000000000    0.5000000000000000 In
   0.6528710000000000    0.8471290000000000    0.5000000000000000 In
   0.0000000000000000    0.0000000000000000    0.0000000000000000 Cu
   0.5000000000000000    0.5000000000000000    0.0000000000000000 Cu
