Eu1 Zn1
1.0
      2.9929591360       0.0000000000       0.0000000000
     -0.0000000000       2.9929591360       0.0000000000
      0.0000000000       0.0000000000       2.9929591360
Eu Zn
1 1
direct
   0.0000000000000000    0.0000000000000000    0.0000000000000000 Eu
   0.5000000000000000    0.5000000000000000    0.5000000000000000 Zn
