Li1 Tl1
1.0
      2.7518252160       0.0000000000       0.0000000000
      0.0000000000       2.7518252160       0.0000000000
      0.0000000000       0.0000000000       2.7518252160
Li Tl
1 1
direct
   0.0000000000000000    0.0000000000000000    0.0000000000000000 Li
   0.5000000000000000    0.5000000000000000    0.5000000000000000 Tl
