Zr3 Cu1
1.0
      4.0959411500       0.0000000000       0.0000000000
     -0.0000000000       4.0959411500       0.0000000000
      0.0000000000       0.0000000000       4.0959411500
Zr Cu
3 1
direct
   0.5000000000000000    0.5000000000000000    0.0000000000000000 Zr
   0.5000000000000000    0.0000000000000000    0.5000000000000000 Zr
   0.0000000000000000    0.5000000000000000    0.5000000000000000 Zr
   0.0000000000000000    0.0000000000000000    0.0000000000000000 Cu
