Zr3 Cu1
1.0
      3.8803653000       0.0000000000       0.0000000000
     -0.0000000000       3.8803653000       0.0000000000
      0.0000000000       0.0000000000       3.8803653000
Zr Cu
3 1
direct
   0.5000000000000000    0.5000000000000000    0.0000000000000000 Zr
   0.5000000000000000    0.0000000000000000    0.5000000000000000 Zr
   0.0000000000000000    0.5000000000000000    0.5000000000000000 Zr
   0.0000000000000000    0.0000000000000000    0.0000000000000000 Cu
