Ga1 Cu2
1.0
      1.9413547500       0.0000000000       0.0000000000
     -0.0000000000       2.7185444850      -1.5529427411
      0.0000000000       0.0000000000       3.1559809050
Ga Cu
1 2
direct
   0.5000000000000000    0.5000000000000000    0.0000000000000000 Ga
   0.0000010000000000    0.1657940000000000    0.3315890000000000 Cu
   0.0000000000000000    0.8342060000000000    0.6684110000000000 Cu
