Ga1 Cu2
1.0
      2.3296257000       0.0000000000       0.0000000000
     -0.0000000000       3.2622533820      -1.8635312893
      0.0000000000       0.0000000000       3.7871770860
Ga Cu
1 2
direct
   0.5000000000000000    0.5000000000000000    0.0000000000000000 Ga
   0.0000010000000000    0.1657940000000000    0.3315890000000000 Cu
   0.0000000000000000    0.8342060000000000    0.6684110000000000 Cu
