Ga1 Cu2
1.0
      2.0707784000       0.0000000000       0.0000000000
     -0.0000000000       2.8997807840      -1.6564722572
      0.0000000000       0.0000000000       3.3663796320
Ga Cu
1 2
direct
   0.5000000000000000    0.5000000000000000    0.0000000000000000 Ga
   0.0000010000000000    0.1657940000000000    0.3315890000000000 Cu
   0.0000000000000000    0.8342060000000000    0.6684110000000000 Cu
