K6 N2
1.0
      6.9743162340       0.0000000000       0.0000000000
     -3.4871583510       6.0399348976       0.0000000000
      0.0000000000       0.0000000000       6.4855845000
K N
6 2
direct
   0.0000000000000000    0.7356330000000000    0.7500000000000000 K
   0.0000000000000000    0.2643670000000000    0.2500000000000000 K
   0.7356330000000000    0.7356330000000000    0.2500000000000000 K
   0.7356330000000000    0.0000000000000000    0.7500000000000000 K
   0.2643670000000000    0.2643670000000000    0.7500000000000000 K
   0.2643670000000000    0.0000000000000000    0.2500000000000000 K
   0.0000000000000000    0.0000000000000000    0.5000000000000000 N
   0.0000000000000000    0.0000000000000000    0.0000000000000000 N
