K6 N2
1.0
      5.8119301950       0.0000000000       0.0000000000
     -2.9059652925       5.0332790813       0.0000000000
      0.0000000000       0.0000000000       5.4046537500
K N
6 2
direct
   0.0000000000000000    0.7356330000000000    0.7500000000000000 K
   0.0000000000000000    0.2643670000000000    0.2500000000000000 K
   0.7356330000000000    0.7356330000000000    0.2500000000000000 K
   0.7356330000000000    0.0000000000000000    0.7500000000000000 K
   0.2643670000000000    0.2643670000000000    0.7500000000000000 K
   0.2643670000000000    0.0000000000000000    0.2500000000000000 K
   0.0000000000000000    0.0000000000000000    0.5000000000000000 N
   0.0000000000000000    0.0000000000000000    0.0000000000000000 N
