Li3 Tl1
1.0
      3.8488144811       0.0000000000       2.2221139468
      1.2829375046       3.6286971155       2.2221139453
      0.0000000000       0.0000000000       4.4442278890
Li Tl
3 1
direct
   0.7500000000000000    0.7500000000000000    0.7500000000000000 Li
   0.5000000000000000    0.5000000000000000    0.5000000000000000 Li
   0.2500000000000000    0.2500000000000000    0.2500000000000000 Li
   0.0000000000000000    0.0000000000000000    0.0000000000000000 Tl
