K1 Tm1
1.0
      3.4167951275       0.0000000000       0.0000000000
     -1.7083979883       2.9590311348       0.0000000000
      0.0000000000       0.0000000000       6.8063120500
K Tm
1 1
direct
   0.6666666666666666    0.3333333333333333    0.5000000000000000 K
   0.3333333333333333    0.6666666666666666    0.0000000000000000 Tm
