K1 Tm1
1.0
      2.8773011600       0.0000000000       0.0000000000
     -1.4386509375       2.4918156925       0.0000000000
      0.0000000000       0.0000000000       5.7316312000
K Tm
1 1
direct
   0.6666666666666666    0.3333333333333333    0.5000000000000000 K
   0.3333333333333333    0.6666666666666666    0.0000000000000000 Tm
