Li1 O8
1.0
      3.8858041102       0.0000000000       2.0526567103
      0.7192963065       4.3246859217       2.4181578981
      0.0000000000       0.0000000000       5.7566128085
Li O
1 8
direct
   0.3357820000000000    0.7221540000000000    0.4277060000000000 Li
   0.8075710000000000    0.3539320000000000    0.8173130000000000 O
   0.1151780000000000    0.3241650000000000    0.7288950000000000 O
   0.1170890000000000    0.6750630000000000    0.2280260000000000 O
   0.8020380000000000    0.7198970000000000    0.3191060000000000 O
   0.7853599999999999    0.1626340000000000    0.2434930000000000 O
   0.1272410000000000    0.8947950000000000    0.7354930000000000 O
   0.0930650000000000    0.1270820000000000    0.1632640000000000 O
   0.8166770000000000    0.9488490000000001    0.8247980000000000 O
