Cu1 As2
1.0
      3.8400876000       0.0000000000       0.0000000000
     -1.9200437992       2.7297764982      -1.9200437992
      0.0000000000       0.0000000000       3.8400876000
Cu As
1 2
direct
   0.2500000000000000    0.5000000000000000    0.7500000000000000 Cu
   0.0000000000000000    0.0000000000000000    0.0000000000000000 As
   0.5000000000000000    0.0000000000000000    0.5000000000000000 As
