Cu1 As2
1.0
      3.2000730000       0.0000000000       0.0000000000
     -1.6000364994       2.2748137485      -1.6000364994
      0.0000000000       0.0000000000       3.2000730000
Cu As
1 2
direct
   0.2500000000000000    0.5000000000000000    0.7500000000000000 Cu
   0.0000000000000000    0.0000000000000000    0.0000000000000000 As
   0.5000000000000000    0.0000000000000000    0.5000000000000000 As
