Cu1 As2
1.0
      3.4134112000       0.0000000000       0.0000000000
     -1.7067055993       2.4264679984      -1.7067055993
      0.0000000000       0.0000000000       3.4134112000
Cu As
1 2
direct
   0.2500000000000000    0.5000000000000000    0.7500000000000000 Cu
   0.0000000000000000    0.0000000000000000    0.0000000000000000 As
   0.5000000000000000    0.0000000000000000    0.5000000000000000 As
