Cu1 As2
1.0
      4.0534258000       0.0000000000       0.0000000000
     -2.0267128992       2.8814307481      -2.0267128992
      0.0000000000       0.0000000000       4.0534258000
Cu As
1 2
direct
   0.2500000000000000    0.5000000000000000    0.7500000000000000 Cu
   0.0000000000000000    0.0000000000000000    0.0000000000000000 As
   0.5000000000000000    0.0000000000000000    0.5000000000000000 As
