Cu2 As2
1.0
      3.6382226950       0.0000000000       0.0000000000
     -1.8191113478       3.1507924117       0.0000000000
      0.0000000000       0.0000000000       4.7120259445
Cu As
2 2
direct
   0.0000000000000000    0.0000000000000000    0.5000000000000000 Cu
   0.0000000000000000    0.0000000000000000    0.0000000000000000 Cu
   0.6666666666666666    0.3333333333333333    0.7500000000000000 As
   0.3333333333333333    0.6666666666666666    0.2500000000000000 As
