K6 Dy2
1.0
      8.1781859030       0.0000000000       0.0000000000
     -4.0890936524       7.0825163442       0.0000000000
      0.0000000000       0.0000000000       6.7252352500
K Dy
6 2
direct
   0.1712770000000000    0.3425540000000000    0.2500000000000000 K
   0.6574460000000000    0.8287230000000000    0.2500000000000000 K
   0.1712770000000000    0.8287230000000000    0.2500000000000000 K
   0.8287230000000000    0.6574460000000000    0.7500000000000000 K
   0.3425540000000000    0.1712770000000000    0.7500000000000000 K
   0.8287230000000000    0.1712770000000000    0.7500000000000000 K
   0.3333333333333333    0.6666666666666666    0.7500000000000000 Dy
   0.6666666666666666    0.3333333333333333    0.2500000000000000 Dy
