K3 Hf1
1.0
      4.7810009124       0.0000000000       2.7603121638
      1.5936669708       4.5075708880       2.7603121638
      0.0000000000       0.0000000000       5.5206243275
K Hf
3 1
direct
   0.2500000000000000    0.2500000000000000    0.2500000000000000 K
   0.7500000000000000    0.7500000000000000    0.7500000000000000 K
   0.5000000000000000    0.5000000000000000    0.5000000000000000 K
   0.0000000000000000    0.0000000000000000    0.0000000000000000 Hf
