K3 Hf1
1.0
      4.2185302168       0.0000000000       2.4355695563
      1.4061767389       3.9772684306       2.4355695563
      0.0000000000       0.0000000000       4.8711391125
K Hf
3 1
direct
   0.2500000000000000    0.2500000000000000    0.2500000000000000 K
   0.7500000000000000    0.7500000000000000    0.7500000000000000 K
   0.5000000000000000    0.5000000000000000    0.5000000000000000 K
   0.0000000000000000    0.0000000000000000    0.0000000000000000 Hf
