K3 Hf1
1.0
      4.4997655646       0.0000000000       2.5979408600
      1.4999218549       4.2424196593       2.5979408600
      0.0000000000       0.0000000000       5.1958817200
K Hf
3 1
direct
   0.2500000000000000    0.2500000000000000    0.2500000000000000 K
   0.7500000000000000    0.7500000000000000    0.7500000000000000 K
   0.5000000000000000    0.5000000000000000    0.5000000000000000 K
   0.0000000000000000    0.0000000000000000    0.0000000000000000 Hf
