K3 Hf1
1.0
      5.3434716079       0.0000000000       3.0850547713
      1.7811572026       5.0378733454       3.0850547713
      0.0000000000       0.0000000000       6.1701095425
K Hf
3 1
direct
   0.2500000000000000    0.2500000000000000    0.2500000000000000 K
   0.7500000000000000    0.7500000000000000    0.7500000000000000 K
   0.5000000000000000    0.5000000000000000    0.5000000000000000 K
   0.0000000000000000    0.0000000000000000    0.0000000000000000 Hf
