K3 Hf1
1.0
      5.0622362602       0.0000000000       2.9226834675
      1.6874120867       4.7727221167       2.9226834675
      0.0000000000       0.0000000000       5.8453669350
K Hf
3 1
direct
   0.2500000000000000    0.2500000000000000    0.2500000000000000 K
   0.7500000000000000    0.7500000000000000    0.7500000000000000 K
   0.5000000000000000    0.5000000000000000    0.5000000000000000 K
   0.0000000000000000    0.0000000000000000    0.0000000000000000 Hf
