Li2 Pt1
1.0
      3.5463111120       0.0000000000       0.0000000000
     -1.7731551323       3.0711945697       0.0000000000
      0.0000000000       0.0000000000       2.2461652220
Li Pt
2 1
direct
   0.3333333333333333    0.6666666666666666    0.5000000000000000 Li
   0.6666666666666666    0.3333333333333333    0.5000000000000000 Li
   0.0000000000000000    0.0000000000000000    0.0000000000000000 Pt
