Li2 Pt1
1.0
      3.9635241840       0.0000000000       0.0000000000
     -1.9817616185       3.4325115779       0.0000000000
      0.0000000000       0.0000000000       2.5104199540
Li Pt
2 1
direct
   0.3333333333333333    0.6666666666666666    0.5000000000000000 Li
   0.6666666666666666    0.3333333333333333    0.5000000000000000 Li
   0.0000000000000000    0.0000000000000000    0.0000000000000000 Pt
