Li2 Pt1
1.0
      3.3377045760       0.0000000000       0.0000000000
     -1.6688518893       2.8905360656       0.0000000000
      0.0000000000       0.0000000000       2.1140378560
Li Pt
2 1
direct
   0.3333333333333333    0.6666666666666666    0.5000000000000000 Li
   0.6666666666666666    0.3333333333333333    0.5000000000000000 Li
   0.0000000000000000    0.0000000000000000    0.0000000000000000 Pt
