Li2 Pt1
1.0
      3.1290980400       0.0000000000       0.0000000000
     -1.5645486462       2.7098775615       0.0000000000
      0.0000000000       0.0000000000       1.9819104900
Li Pt
2 1
direct
   0.3333333333333333    0.6666666666666666    0.5000000000000000 Li
   0.6666666666666666    0.3333333333333333    0.5000000000000000 Li
   0.0000000000000000    0.0000000000000000    0.0000000000000000 Pt
