Er1 Cu5
1.0
      3.8166509582       0.0000000000       2.2035457496
      1.2722144304       3.5983734007       2.2035468750
      0.0000000000       0.0000000000       4.4070890130
Er Cu
1 5
direct
   0.0000000000000000    0.0000000000000000    0.0000000000000000 Er
   0.2500000000000000    0.2500000000000000    0.2500000000000000 Cu
   0.6240270000000000    0.6240260000000000    0.6240260000000000 Cu
   0.6240260000000000    0.6240270000000000    0.1279199900000000 Cu
   0.1279199900000000    0.6240270000000000    0.6240270000000000 Cu
   0.6240260000000000    0.1279199900000000    0.6240270000000000 Cu
