Er1 Cu5
1.0
      4.0286871226       0.0000000000       2.3259649579
      1.3428930099       3.7982830340       2.3259661459
      0.0000000000       0.0000000000       4.6519272915
Er Cu
1 5
direct
   0.0000000000000000    0.0000000000000000    0.0000000000000000 Er
   0.2500000000000000    0.2500000000000000    0.2500000000000000 Cu
   0.6240270000000000    0.6240260000000000    0.6240260000000000 Cu
   0.6240260000000000    0.6240270000000000    0.1279199900000000 Cu
   0.1279199900000000    0.6240270000000000    0.6240270000000000 Cu
   0.6240260000000000    0.1279199900000000    0.6240270000000000 Cu
