Er1 Cu5
1.0
      3.1805424652       0.0000000000       1.8362881246
      1.0601786920       2.9986445006       1.8362890625
      0.0000000000       0.0000000000       3.6725741775
Er Cu
1 5
direct
   0.0000000000000000    0.0000000000000000    0.0000000000000000 Er
   0.2500000000000000    0.2500000000000000    0.2500000000000000 Cu
   0.6240270000000000    0.6240260000000000    0.6240260000000000 Cu
   0.6240260000000000    0.6240270000000000    0.1279199900000000 Cu
   0.1279199900000000    0.6240270000000000    0.6240270000000000 Cu
   0.6240260000000000    0.1279199900000000    0.6240270000000000 Cu
