Er1 Cu5
1.0
      3.6046147939       0.0000000000       2.0811265412
      1.2015358510       3.3984637673       2.0811276042
      0.0000000000       0.0000000000       4.1622507345
Er Cu
1 5
direct
   0.0000000000000000    0.0000000000000000    0.0000000000000000 Er
   0.2500000000000000    0.2500000000000000    0.2500000000000000 Cu
   0.6240270000000000    0.6240260000000000    0.6240260000000000 Cu
   0.6240260000000000    0.6240270000000000    0.1279199900000000 Cu
   0.1279199900000000    0.6240270000000000    0.6240270000000000 Cu
   0.6240260000000000    0.1279199900000000    0.6240270000000000 Cu
