Er1 Cu5
1.0
      3.3925786296       0.0000000000       1.9587073329
      1.1308572715       3.1985541339       1.9587083334
      0.0000000000       0.0000000000       3.9174124560
Er Cu
1 5
direct
   0.0000000000000000    0.0000000000000000    0.0000000000000000 Er
   0.2500000000000000    0.2500000000000000    0.2500000000000000 Cu
   0.6240270000000000    0.6240260000000000    0.6240260000000000 Cu
   0.6240260000000000    0.6240270000000000    0.1279199900000000 Cu
   0.1279199900000000    0.6240270000000000    0.6240270000000000 Cu
   0.6240260000000000    0.1279199900000000    0.6240270000000000 Cu
