Sm1 Cu1
1.0
      2.6411815800       0.0000000000       0.0000000000
     -0.0000000000       2.6411815800       0.0000000000
      0.0000000000       0.0000000000       2.6411815800
Sm Cu
1 1
direct
   0.5000000000000000    0.5000000000000000    0.5000000000000000 Sm
   0.0000000000000000    0.0000000000000000    0.0000000000000000 Cu
