Li2 B2
1.0
      2.8072134703       0.0000000000       1.6207454528
      0.9357378234       2.6466662414       1.6207454528
      0.0000000000       0.0000000000       3.2414909055
Li B
2 2
direct
   0.5000000000000000    0.5000000000000000    0.5000000000000000 Li
   0.7500000000000000    0.7500000000000000    0.7500000000000000 Li
   0.2500000000000000    0.2500000000000000    0.2500000000000000 B
   0.0000000000000000    0.0000000000000000    0.0000000000000000 B
