Mn1 Au3
1.0
      3.4691211500       0.0000000000       0.0000000000
     -0.0000000000       3.4691211500       0.0000000000
      0.0000000000       0.0000000000       3.4691211500
Mn Au
1 3
direct
   0.0000000000000000    0.0000000000000000    0.0000000000000000 Mn
   0.0000000000000000    0.5000000000000000    0.5000000000000000 Au
   0.5000000000000000    0.0000000000000000    0.5000000000000000 Au
   0.5000000000000000    0.5000000000000000    0.0000000000000000 Au
