K1 Pm3
1.0
      4.0056255000       0.0000000000       0.0000000000
     -0.0000000000       4.0056255000       0.0000000000
      0.0000000000       0.0000000000       4.0056255000
K Pm
1 3
direct
   0.0000000000000000    0.0000000000000000    0.0000000000000000 K
   0.0000000000000000    0.5000000000000000    0.5000000000000000 Pm
   0.5000000000000000    0.0000000000000000    0.5000000000000000 Pm
   0.5000000000000000    0.5000000000000000    0.0000000000000000 Pm
