Pr1 Zn1
1.0
      3.1474637845       0.0000000000       0.0000000000
     -0.0000000000       3.1474637845       0.0000000000
      0.0000000000       0.0000000000       3.1474637845
Pr Zn
1 1
direct
   0.0000000000000000    0.0000000000000000    0.0000000000000000 Pr
   0.5000000000000000    0.5000000000000000    0.5000000000000000 Zn
