Pr1 Zn1
1.0
      2.7771739275       0.0000000000       0.0000000000
     -0.0000000000       2.7771739275       0.0000000000
      0.0000000000       0.0000000000       2.7771739275
Pr Zn
1 1
direct
   0.0000000000000000    0.0000000000000000    0.0000000000000000 Pr
   0.5000000000000000    0.5000000000000000    0.5000000000000000 Zn
