Pr1 Zn1
1.0
      3.3326087130       0.0000000000       0.0000000000
     -0.0000000000       3.3326087130       0.0000000000
      0.0000000000       0.0000000000       3.3326087130
Pr Zn
1 1
direct
   0.0000000000000000    0.0000000000000000    0.0000000000000000 Pr
   0.5000000000000000    0.5000000000000000    0.5000000000000000 Zn
