Cu2 H2
1.0
      2.1176750550       0.0000000000       0.0000000000
     -1.0588382990       1.8339605814       0.0000000000
      0.0000000000       0.0000000000       3.4191287400
Cu H
2 2
direct
   0.6666666666666666    0.3333333333333333    0.4983224900000000 Cu
   0.3333333333333333    0.6666666666666666    0.9983224900000000 Cu
   0.6666666666666666    0.3333333333333333    0.8766775100000000 H
   0.3333333333333333    0.6666666666666666    0.3766775100000000 H
