Cu2 H2
1.0
      2.6823884030       0.0000000000       0.0000000000
     -1.3411951787       2.3230167364       0.0000000000
      0.0000000000       0.0000000000       4.3308964040
Cu H
2 2
direct
   0.6666666666666666    0.3333333333333333    0.4983224900000000 Cu
   0.3333333333333333    0.6666666666666666    0.9983224900000000 Cu
   0.6666666666666666    0.3333333333333333    0.8766775100000000 H
   0.3333333333333333    0.6666666666666666    0.3766775100000000 H
