Cu2 H2
1.0
      2.5412100660       0.0000000000       0.0000000000
     -1.2706059588       2.2007526976       0.0000000000
      0.0000000000       0.0000000000       4.1029544880
Cu H
2 2
direct
   0.6666666666666666    0.3333333333333333    0.4983224900000000 Cu
   0.3333333333333333    0.6666666666666666    0.9983224900000000 Cu
   0.6666666666666666    0.3333333333333333    0.8766775100000000 H
   0.3333333333333333    0.6666666666666666    0.3766775100000000 H
