Cu2 H2
1.0
      2.4000317290       0.0000000000       0.0000000000
     -1.2000167388       2.0784886589       0.0000000000
      0.0000000000       0.0000000000       3.8750125720
Cu H
2 2
direct
   0.6666666666666666    0.3333333333333333    0.4983224900000000 Cu
   0.3333333333333333    0.6666666666666666    0.9983224900000000 Cu
   0.6666666666666666    0.3333333333333333    0.8766775100000000 H
   0.3333333333333333    0.6666666666666666    0.3766775100000000 H
