K1 Sm1
1.0
      2.7633165927       0.0000000000       0.0002607644
     -1.3829362094       2.3923467398      -0.0002651967
      0.0000000000       0.0000000000       5.3800837575
K Sm
1 1
direct
   0.6666666666666666    0.3333333333333333    0.7499990000000000 K
   0.3333333333333333    0.6666666666666666    0.2500010000000000 Sm
