K1 Sm1
1.0
      3.1317588051       0.0000000000       0.0002955330
     -1.5673277039       2.7113263051      -0.0003005562
      0.0000000000       0.0000000000       6.0974282585
K Sm
1 1
direct
   0.6666666666666666    0.3333333333333333    0.7499990000000000 K
   0.3333333333333333    0.6666666666666666    0.2500010000000000 Sm
