K1 Sm1
1.0
      3.3159799112       0.0000000000       0.0003129173
     -1.6595234512       2.8708160878      -0.0003182360
      0.0000000000       0.0000000000       6.4561005090
K Sm
1 1
direct
   0.6666666666666666    0.3333333333333333    0.7499990000000000 K
   0.3333333333333333    0.6666666666666666    0.2500010000000000 Sm
