K1 Sm1
1.0
      2.9475376989       0.0000000000       0.0002781487
     -1.4751319566       2.5518365225      -0.0002828764
      0.0000000000       0.0000000000       5.7387560080
K Sm
1 1
direct
   0.6666666666666666    0.3333333333333333    0.7499990000000000 K
   0.3333333333333333    0.6666666666666666    0.2500010000000000 Sm
