K1 Sm1
1.0
      3.5002010174       0.0000000000       0.0003303016
     -1.7517191985       3.0303058704      -0.0003359158
      0.0000000000       0.0000000000       6.8147727595
K Sm
1 1
direct
   0.6666666666666666    0.3333333333333333    0.7499990000000000 K
   0.3333333333333333    0.6666666666666666    0.2500010000000000 Sm
