La2 Zn8
1.0
      4.7891743680       0.0000000000       0.0000000000
     -2.1544805683       4.2771958814       0.0000000000
      0.0000000000       0.0000000000       4.8408960480
La Zn
2 8
direct
   0.2658281200000000    0.7341718800000000    0.2500000000000000 La
   0.7341718800000000    0.2658281200000000    0.7500010000000000 La
   0.2188117200000000    0.2188117200000000    0.0000000000000000 Zn
   0.7811882800000000    0.7811882800000000    0.0000000000000000 Zn
   0.8531259100000000    0.1468740900000000    0.2500000000000000 Zn
   0.6103014100000000    0.3896985900000000    0.2500000000000000 Zn
   0.2188117200000000    0.2188117200000000    0.4999990000000000 Zn
   0.7811882800000000    0.7811882800000000    0.4999990000000000 Zn
   0.3896985900000000    0.6103014100000000    0.7500010000000000 Zn
   0.1468740900000000    0.8531259100000000    0.7500010000000000 Zn
