Cu6 As8
1.0
      7.3896564160       0.0000000000      -6.5924964071
     -0.2551443101       3.3001180621      -9.3333891476
      0.0000000000       0.0000000000       9.9029304160
Cu As
6 8
direct
   0.2720580000000000    0.4312650000000000    0.8407920000000000 Cu
   0.7279420000000000    0.5687350000000000    0.1592080000000000 Cu
   0.4095270000000000    0.5687350000000000    0.8407920000000000 Cu
   0.5904730000000000    0.4312650000000000    0.1592080000000000 Cu
   0.3189440000000000    0.3189440000000000    0.0000000000000000 Cu
   0.6810560000000000    0.6810560000000000    0.0000000000000000 Cu
   0.1321020000000000    0.8385750000000000    0.2935280000000000 As
   0.8678979999999999    0.1614250000000000    0.7064720000000000 As
   0.4549530000000000    0.1614250000000000    0.2935280000000000 As
   0.5450469999999999    0.8385750000000000    0.7064720000000000 As
   0.2129570000000000    0.0000000000000000    0.2129570000000000 As
   0.7870430000000000    0.0000000000000000    0.7870430000000000 As
   0.2284100000000000    0.7284100000000000    0.5000000000000000 As
   0.7715900000000000    0.2715900000000000    0.5000000000000000 As
