K3 Rh1
1.0
      5.5121111850       0.0000000000       0.0000000000
     -2.7560558799       4.7736281487       0.0000000000
      0.0000000000       0.0000000000       5.9644838000
K Rh
3 1
direct
   0.0000000000000000    0.0000000000000000    0.5000000000000000 K
   0.3333333333333333    0.6666666666666666    0.8928850000000000 K
   0.6666666666666666    0.3333333333333333    0.1071150000000000 K
   0.0000000000000000    0.0000000000000000    0.0000000000000000 Rh
