K3 Rh1
1.0
      4.3516667250       0.0000000000       0.0000000000
     -2.1758335894       3.7686538016       0.0000000000
      0.0000000000       0.0000000000       4.7088030000
K Rh
3 1
direct
   0.0000000000000000    0.0000000000000000    0.5000000000000000 K
   0.3333333333333333    0.6666666666666666    0.8928850000000000 K
   0.6666666666666666    0.3333333333333333    0.1071150000000000 K
   0.0000000000000000    0.0000000000000000    0.0000000000000000 Rh
