K3 Al1
1.0
      5.0012023631       0.0000000000      -4.2567462179
     -1.0676498183       4.8859133171      -4.2567462179
      0.0000000000       0.0000000000       6.5674891275
K Al
3 1
direct
   0.7500000000000000    0.2500000000000000    0.5000000000000000 K
   0.2500000000000000    0.7500000000000000    0.5000000000000000 K
   0.5000000000000000    0.5000000000000000    0.0000000000000000 K
   0.0000000000000000    0.0000000000000000    0.0000000000000000 Al
