K3 Al1
1.0
      4.7379811861       0.0000000000      -4.0327069433
     -1.0114577226       4.6287599846      -4.0327069433
      0.0000000000       0.0000000000       6.2218318050
K Al
3 1
direct
   0.7500000000000000    0.2500000000000000    0.5000000000000000 K
   0.2500000000000000    0.7500000000000000    0.5000000000000000 K
   0.5000000000000000    0.5000000000000000    0.0000000000000000 K
   0.0000000000000000    0.0000000000000000    0.0000000000000000 Al
