K3 Al1
1.0
      4.2115388320       0.0000000000      -3.5846283940
     -0.8990735312       4.1144533196      -3.5846283940
      0.0000000000       0.0000000000       5.5305171600
K Al
3 1
direct
   0.7500000000000000    0.2500000000000000    0.5000000000000000 K
   0.2500000000000000    0.7500000000000000    0.5000000000000000 K
   0.5000000000000000    0.5000000000000000    0.0000000000000000 K
   0.0000000000000000    0.0000000000000000    0.0000000000000000 Al
