K3 Al1
1.0
      3.9483176550       0.0000000000      -3.3605891194
     -0.8428814355       3.8572999871      -3.3605891194
      0.0000000000       0.0000000000       5.1848598375
K Al
3 1
direct
   0.7500000000000000    0.2500000000000000    0.5000000000000000 K
   0.2500000000000000    0.7500000000000000    0.5000000000000000 K
   0.5000000000000000    0.5000000000000000    0.0000000000000000 K
   0.0000000000000000    0.0000000000000000    0.0000000000000000 Al
