K3 Al1
1.0
      4.4747600091       0.0000000000      -3.8086676686
     -0.9552656269       4.3716066521      -3.8086676686
      0.0000000000       0.0000000000       5.8761744825
K Al
3 1
direct
   0.7500000000000000    0.2500000000000000    0.5000000000000000 K
   0.2500000000000000    0.7500000000000000    0.5000000000000000 K
   0.5000000000000000    0.5000000000000000    0.0000000000000000 K
   0.0000000000000000    0.0000000000000000    0.0000000000000000 Al
