Sr6 Li2
1.0
      6.0847499325       0.0000000000       0.0000000000
     -3.0423749010       5.2695480549       0.0000000000
      0.0000000000       0.0000000000       4.9477477500
Sr Li
6 2
direct
   0.1697590000000000    0.3395180000000000    0.2500000000000000 Sr
   0.6604820000000000    0.8302410000000000    0.2500000000000000 Sr
   0.1697590000000000    0.8302410000000000    0.2500000000000000 Sr
   0.8302410000000000    0.6604820000000000    0.7500000000000000 Sr
   0.3395180000000000    0.1697590000000000    0.7500000000000000 Sr
   0.8302410000000000    0.1697590000000000    0.7500000000000000 Sr
   0.3333333333333333    0.6666666666666666    0.7500000000000000 Li
   0.6666666666666666    0.3333333333333333    0.2500000000000000 Li
