Li1 Zn3
1.0
      3.1346665371       0.0000000000       1.8098005690
      1.0448888457       2.9553919535       1.8098005690
      0.0000000000       0.0000000000       3.6196011380
Li Zn
1 3
direct
   0.7500000000000000    0.7500000000000000    0.7500000000000000 Li
   0.0000000000000000    0.0000000000000000    0.0000000000000000 Zn
   0.4999990000000000    0.4999990000000000    0.4999990000000000 Zn
   0.2499990000000000    0.2499990000000000    0.2499990000000000 Zn
