Li1 Hg3
1.0
      4.1047969187       0.0000000000       2.3699056060
      1.3682656396       3.8700396488       2.3699056060
      0.0000000000       0.0000000000       4.7398112120
Li Hg
1 3
direct
   0.7500000000000000    0.7500000000000000    0.7500000000000000 Li
   0.0000000000000000    0.0000000000000000    0.0000000000000000 Hg
   0.5000000000000000    0.5000000000000000    0.5000000000000000 Hg
   0.2500000000000000    0.2500000000000000    0.2500000000000000 Hg
