Li1 Hg3
1.0
      3.6727130326       0.0000000000       2.1204418580
      1.2242376775       3.4626670542       2.1204418580
      0.0000000000       0.0000000000       4.2408837160
Li Hg
1 3
direct
   0.7500000000000000    0.7500000000000000    0.7500000000000000 Li
   0.0000000000000000    0.0000000000000000    0.0000000000000000 Hg
   0.5000000000000000    0.5000000000000000    0.5000000000000000 Hg
   0.2500000000000000    0.2500000000000000    0.2500000000000000 Hg
