Li6 Ni2
1.0
      4.8929619960       0.0000000000       0.0000000000
     -2.4464813915       4.2374291611       0.0000000000
      0.0000000000       0.0000000000       4.0187889000
Li Ni
6 2
direct
   0.1745940000000000    0.3491880000000000    0.2500000000000000 Li
   0.6508119999999999    0.8254060000000000    0.2500000000000000 Li
   0.1745940000000000    0.8254060000000000    0.2500000000000000 Li
   0.8254060000000000    0.6508119999999999    0.7500000000000000 Li
   0.3491880000000000    0.1745940000000000    0.7500000000000000 Li
   0.8254060000000000    0.1745940000000000    0.7500000000000000 Li
   0.3333333333333333    0.6666666666666666    0.7500000000000000 Ni
   0.6666666666666666    0.3333333333333333    0.2500000000000000 Ni
