Ho1 Zn12
1.0
      4.2186504492       0.0000000000       1.7169850251
      2.1093252202       5.5954403767       0.8584925110
      0.0000000000       0.0000000000       6.0411269880
Ho Zn
1 12
direct
   0.0000000000000000    0.0000000000000000    0.0000000000000000 Ho
   0.0000000000000000    0.0000000000000000    0.5000000000000000 Zn
   0.5000000000000000    0.0000000000000000    0.5000000000000000 Zn
   0.5000000000000000    0.5000000000000000    0.0000000000000000 Zn
   0.0000000000000000    0.5000000000000000    0.0000000000000000 Zn
   0.0000000000000000    0.3540062500000000    0.6459937500000000 Zn
   0.0000000000000000    0.6459937500000000    0.3540062500000000 Zn
   0.6459937500000000    0.3540062500000000    0.3540062500000000 Zn
   0.3540062500000000    0.6459937500000000    0.6459937500000000 Zn
   0.5000000000000000    0.7837713200000000    0.2162286800000000 Zn
   0.5000000000000000    0.2162286800000000    0.7837713200000000 Zn
   0.7162286800000000    0.7837713200000000    0.7837713200000000 Zn
   0.2837713200000000    0.2162286800000000    0.2162286800000000 Zn
