Li1 Ag1
1.0
      2.8104662970       0.0000000000       0.0000000000
     -0.0000000000       2.8104662970       0.0000000000
      0.0000000000       0.0000000000       2.8104662970
Li Ag
1 1
direct
   0.5000000000000000    0.5000000000000000    0.5000000000000000 Li
   0.0000000000000000    0.0000000000000000    0.0000000000000000 Ag
