Li1 Ag1
1.0
      2.4981922640       0.0000000000       0.0000000000
     -0.0000000000       2.4981922640       0.0000000000
      0.0000000000       0.0000000000       2.4981922640
Li Ag
1 1
direct
   0.5000000000000000    0.5000000000000000    0.5000000000000000 Li
   0.0000000000000000    0.0000000000000000    0.0000000000000000 Ag
