Mn3 Rh1
1.0
      3.4253133500       0.0000000000       0.0000000000
     -0.0000000000       3.4253133500       0.0000000000
      0.0000000000       0.0000000000       3.4253133500
Mn Rh
3 1
direct
   0.0000000000000000    0.5000000000000000    0.5000000000000000 Mn
   0.5000000000000000    0.5000000000000000    0.0000000000000000 Mn
   0.5000000000000000    0.0000000000000000    0.5000000000000000 Mn
   0.0000000000000000    0.0000000000000000    0.0000000000000000 Rh
