Mn3 Rh1
1.0
      2.7041947500       0.0000000000       0.0000000000
     -0.0000000000       2.7041947500       0.0000000000
      0.0000000000       0.0000000000       2.7041947500
Mn Rh
3 1
direct
   0.0000000000000000    0.5000000000000000    0.5000000000000000 Mn
   0.5000000000000000    0.5000000000000000    0.0000000000000000 Mn
   0.5000000000000000    0.0000000000000000    0.5000000000000000 Mn
   0.0000000000000000    0.0000000000000000    0.0000000000000000 Rh
