Li2 Ca6
1.0
      6.8264431740       0.0000000000       0.0000000000
     -3.4132222173       5.9118764068       0.0000000000
      0.0000000000       0.0000000000       5.5915692840
Li Ca
2 6
direct
   0.3333333333333333    0.6666666666666666    0.7500000000000000 Li
   0.6666666666666666    0.3333333333333333    0.2500000000000000 Li
   0.1690703400000000    0.3381396800000000    0.2500000000000000 Ca
   0.6618603199999999    0.8309296600000000    0.2500000000000000 Ca
   0.1690703400000000    0.8309296600000000    0.2500000000000000 Ca
   0.8309296600000000    0.6618603199999999    0.7500000000000000 Ca
   0.3381396800000000    0.1690703400000000    0.7500000000000000 Ca
   0.8309296600000000    0.1690703400000000    0.7500000000000000 Ca
