Mn3 Sb2
1.0
      3.6728902475       0.0000000000       0.0000000000
      1.8357436448       3.1804111557       0.0000000000
      0.0000000000       0.0000000000       4.5602015500
Mn Sb
3 2
direct
   0.0002550000000000    0.9998720000000000    0.4972790000000000 Mn
   0.0002550000000000    0.9998720000000000    0.0027210000000000 Mn
   0.3330240000000000    0.3334880000000000    0.2500000000000000 Mn
   0.3333333333333333    0.3333333333333333    0.7500000000000000 Sb
   0.6665500000000000    0.6666666666666666    0.2500000000000000 Sb
