Li3 In2
1.0
      3.6408778000       0.0000000000       3.0404489733
      1.4221536743       3.3516361478       3.0404489157
      0.0000000000       0.0000000000       4.7434491655
Li In
3 2
direct
   0.5956852300000000    0.5956852300000000    0.5956852300000000 Li
   0.4043147700000000    0.4043147700000000    0.4043147700000000 Li
   0.0000000000000000    0.0000000000000000    0.0000000000000000 Li
   0.2068938000000000    0.2068938000000000    0.2068938000000000 In
   0.7931062000000000    0.7931062000000000    0.7931062000000000 In
