Li3 In2
1.0
      3.4267085176       0.0000000000       2.8615990337
      1.3384975758       3.1544810803       2.8615989795
      0.0000000000       0.0000000000       4.4644227440
Li In
3 2
direct
   0.5956852300000000    0.5956852300000000    0.5956852300000000 Li
   0.4043147700000000    0.4043147700000000    0.4043147700000000 Li
   0.0000000000000000    0.0000000000000000    0.0000000000000000 Li
   0.2068938000000000    0.2068938000000000    0.2068938000000000 In
   0.7931062000000000    0.7931062000000000    0.7931062000000000 In
