Li3 In2
1.0
      3.2125392353       0.0000000000       2.6827490941
      1.2548414773       2.9573260128       2.6827490433
      0.0000000000       0.0000000000       4.1853963225
Li In
3 2
direct
   0.5956852300000000    0.5956852300000000    0.5956852300000000 Li
   0.4043147700000000    0.4043147700000000    0.4043147700000000 Li
   0.0000000000000000    0.0000000000000000    0.0000000000000000 Li
   0.2068938000000000    0.2068938000000000    0.2068938000000000 In
   0.7931062000000000    0.7931062000000000    0.7931062000000000 In
