Cu3 Ag1
1.0
      3.2712279380       0.0000000000      -2.9204755112
     -0.6558581133       3.2048061342      -2.9204755112
      0.0000000000       0.0000000000       4.3852148675
Cu Ag
3 1
direct
   0.7500000000000000    0.2500000000000000    0.5000000000000000 Cu
   0.2500000000000000    0.7500000000000000    0.5000000000000000 Cu
   0.5000000000000000    0.5000000000000000    0.0000000000000000 Cu
   0.0000000000000000    0.0000000000000000    0.0000000000000000 Ag
