Cu3 Ag1
1.0
      2.9268881551       0.0000000000      -2.6130570363
     -0.5868204172       2.8674581201      -2.6130570363
      0.0000000000       0.0000000000       3.9236133025
Cu Ag
3 1
direct
   0.7500000000000000    0.2500000000000000    0.5000000000000000 Cu
   0.2500000000000000    0.7500000000000000    0.5000000000000000 Cu
   0.5000000000000000    0.5000000000000000    0.0000000000000000 Cu
   0.0000000000000000    0.0000000000000000    0.0000000000000000 Ag
