Cu3 Ag1
1.0
      2.7547182636       0.0000000000      -2.4593477989
     -0.5523015691       2.6987841130      -2.4593477989
      0.0000000000       0.0000000000       3.6928125200
Cu Ag
3 1
direct
   0.7500000000000000    0.2500000000000000    0.5000000000000000 Cu
   0.2500000000000000    0.7500000000000000    0.5000000000000000 Cu
   0.5000000000000000    0.5000000000000000    0.0000000000000000 Cu
   0.0000000000000000    0.0000000000000000    0.0000000000000000 Ag
