Cu3 Ag1
1.0
      2.5825483721       0.0000000000      -2.3056385615
     -0.5177827211       2.5301101059      -2.3056385615
      0.0000000000       0.0000000000       3.4620117375
Cu Ag
3 1
direct
   0.7500000000000000    0.2500000000000000    0.5000000000000000 Cu
   0.2500000000000000    0.7500000000000000    0.5000000000000000 Cu
   0.5000000000000000    0.5000000000000000    0.0000000000000000 Cu
   0.0000000000000000    0.0000000000000000    0.0000000000000000 Ag
