Cu3 Ag1
1.0
      3.0990580466       0.0000000000      -2.7667662738
     -0.6213392653       3.0361321271      -2.7667662738
      0.0000000000       0.0000000000       4.1544140850
Cu Ag
3 1
direct
   0.7500000000000000    0.2500000000000000    0.5000000000000000 Cu
   0.2500000000000000    0.7500000000000000    0.5000000000000000 Cu
   0.5000000000000000    0.5000000000000000    0.0000000000000000 Cu
   0.0000000000000000    0.0000000000000000    0.0000000000000000 Ag
