Li1 Pd1
1.0
      2.0821696275       0.0000000000       0.0000000000
     -1.0410844278       1.8032119373       0.0000000000
      0.0000000000       0.0000000000       3.0796626150
Li Pd
1 1
direct
   0.0000000000000000    0.0000000000000000    0.0000000000000000 Li
   0.3333333333333333    0.6666666666666666    0.5000000000000000 Pd
