Li1 Dy3
1.0
      4.3919370000       0.0000000000       0.0000000000
     -0.0000000000       4.3919370000       0.0000000000
      0.0000000000       0.0000000000       4.3919370000
Li Dy
1 3
direct
   0.0000000000000000    0.0000000000000000    0.0000000000000000 Li
   0.0000000000000000    0.5000000000000000    0.5000000000000000 Dy
   0.5000000000000000    0.0000000000000000    0.5000000000000000 Dy
   0.5000000000000000    0.5000000000000000    0.0000000000000000 Dy
