Mg1 Se1
1.0
      3.1807084054       0.0000000000       1.8363828038
      1.0602354913       2.9988000460       1.8363828018
      0.0000000000       0.0000000000       3.6727656165
Mg Se
1 1
direct
   0.0000000000000000    0.0000000000000000    0.0000000000000000 Mg
   0.5000000000000000    0.5000000000000000    0.5000000000000000 Se
