Mg1 Se1
1.0
      2.8458969943       0.0000000000       1.6430793507
      0.9486317554       2.6831368833       1.6430793490
      0.0000000000       0.0000000000       3.2861587095
Mg Se
1 1
direct
   0.0000000000000000    0.0000000000000000    0.0000000000000000 Mg
   0.5000000000000000    0.5000000000000000    0.5000000000000000 Se
