Mg1 Se1
1.0
      2.5110855832       0.0000000000       1.4497758977
      0.8370280194       2.3674737205       1.4497758962
      0.0000000000       0.0000000000       2.8995518025
Mg Se
1 1
direct
   0.0000000000000000    0.0000000000000000    0.0000000000000000 Mg
   0.5000000000000000    0.5000000000000000    0.5000000000000000 Se
