Mg1 Se1
1.0
      2.6784912888       0.0000000000       1.5464276242
      0.8928298874       2.5253053019       1.5464276226
      0.0000000000       0.0000000000       3.0928552560
Mg Se
1 1
direct
   0.0000000000000000    0.0000000000000000    0.0000000000000000 Mg
   0.5000000000000000    0.5000000000000000    0.5000000000000000 Se
