Mg1 Se1
1.0
      3.0133026999       0.0000000000       1.7397310772
      1.0044336233       2.8409684646       1.7397310754
      0.0000000000       0.0000000000       3.4794621630
Mg Se
1 1
direct
   0.0000000000000000    0.0000000000000000    0.0000000000000000 Mg
   0.5000000000000000    0.5000000000000000    0.5000000000000000 Se
