Li3 Co1
1.0
      2.6155225674       0.0000000000      -2.3871375582
     -0.5091248849       2.5654921852      -2.3871375582
      0.0000000000       0.0000000000       3.5410992675
Li Co
3 1
direct
   0.7500000000000000    0.2500000000000000    0.5000000000000000 Li
   0.2500000000000000    0.7500000000000000    0.5000000000000000 Li
   0.5000000000000000    0.5000000000000000    0.0000000000000000 Li
   0.0000000000000000    0.0000000000000000    0.0000000000000000 Co
