Li3 Co1
1.0
      3.3129952521       0.0000000000      -3.0237075737
     -0.6448915209       3.2496234346      -3.0237075737
      0.0000000000       0.0000000000       4.4853924055
Li Co
3 1
direct
   0.7500000000000000    0.2500000000000000    0.5000000000000000 Li
   0.2500000000000000    0.7500000000000000    0.5000000000000000 Li
   0.5000000000000000    0.5000000000000000    0.0000000000000000 Li
   0.0000000000000000    0.0000000000000000    0.0000000000000000 Co
