Ce2 Zn22
1.0
      7.2335745129       0.0000000000      -1.2736604408
     -5.0955905734       5.1341559132      -1.2736604408
      0.0000000000       0.0000000000       7.3448492940
Ce Zn
2 22
direct
   0.0000000000000000    0.0000000000000000    0.0000000000000000 Ce
   0.2500000000000000    0.7500000000000000    0.5000000000000000 Ce
   0.7588933500000000    0.1755771400000000    0.8278529800000000 Zn
   0.6250000000000000    0.8750000000000000    0.2500000000000000 Zn
   0.0689596300000000    0.2411066500000000    0.4166837900000000 Zn
   0.3477241600000000    0.1755771400000000    0.4166837900000000 Zn
   0.0689596300000000    0.6522758400000001    0.8278529800000000 Zn
   0.9022758400000001    0.5744228600000000    0.0833162100000000 Zn
   0.3477241600000000    0.9310403700000000    0.1721470200000000 Zn
   0.7500000000000000    0.2500000000000000    0.5000000000000000 Zn
   0.9022758400000001    0.8189596300000000    0.3278529800000000 Zn
   0.5000000000000000    0.5000000000000000    0.0000000000000000 Zn
   0.4255771400000000    0.0977241600000000    0.9166837900000000 Zn
   0.6250000000000000    0.3750000000000000    0.2500000000000000 Zn
   0.4911066500000000    0.5744228600000000    0.6721470200000000 Zn
   0.1810403700000000    0.0977241600000000    0.6721470200000000 Zn
   0.7588933500000000    0.9310403700000000    0.5833162100000000 Zn
   0.8244228600000000    0.6522758400000001    0.5833162100000000 Zn
   0.4255771400000000    0.5088933500000000    0.3278529800000000 Zn
   0.4911066500000000    0.8189596300000000    0.9166837900000000 Zn
   0.1810403700000000    0.5088933500000000    0.0833162100000000 Zn
   0.8244228600000000    0.2411066500000000    0.1721470200000000 Zn
   0.1250000000000000    0.3750000000000000    0.7500000000000000 Zn
   0.6250000000000000    0.3750000000000000    0.7500000000000000 Zn
