Li3 Ge1
1.0
      3.2077510297       0.0000000000       1.8519959205
      1.0692503432       3.0242966740       1.8519959205
      0.0000000000       0.0000000000       3.7039918410
Li Ge
3 1
direct
   0.0000000000000000    0.0000000000000000    0.0000000000000000 Li
   0.5000010000000000    0.5000010000000000    0.5000010000000000 Li
   0.2500000000000000    0.2500000000000000    0.2500000000000000 Li
   0.7500000000000000    0.7500000000000000    0.7500000000000000 Ge
