Li3 Ge1
1.0
      2.8303685556       0.0000000000       1.6341140475
      0.9434561852       2.6684970653       1.6341140475
      0.0000000000       0.0000000000       3.2682280950
Li Ge
3 1
direct
   0.0000000000000000    0.0000000000000000    0.0000000000000000 Li
   0.5000010000000000    0.5000010000000000    0.5000010000000000 Li
   0.2500000000000000    0.2500000000000000    0.2500000000000000 Li
   0.7500000000000000    0.7500000000000000    0.7500000000000000 Ge
