Li3 Ge1
1.0
      3.0190597927       0.0000000000       1.7430549840
      1.0063532642       2.8463968696       1.7430549840
      0.0000000000       0.0000000000       3.4861099680
Li Ge
3 1
direct
   0.0000000000000000    0.0000000000000000    0.0000000000000000 Li
   0.5000010000000000    0.5000010000000000    0.5000010000000000 Li
   0.2500000000000000    0.2500000000000000    0.2500000000000000 Li
   0.7500000000000000    0.7500000000000000    0.7500000000000000 Ge
