Li3 Mg3
1.0
      4.0940707068       0.0000000000       1.2823883094
      3.2634971241       2.4720439869       1.2823883094
      0.0000000000       0.0000000000       5.0598489450
Li Mg
3 3
direct
   0.9705205300000000    0.9705205300000000    0.0517112300000000 Li
   0.6325464200000001    0.6325464200000001    0.7279196400000000 Li
   0.9816107900000000    0.9816107900000000    0.5561400200000000 Li
   0.3081615800000000    0.3081615800000000    0.8760064100000000 Mg
   0.3099816400000000    0.3099816400000000    0.3973001400000000 Mg
   0.6305120400000001    0.6305120400000001    0.2242555600000000 Mg
