Li2 Tb6
1.0
      5.9715242015       0.0000000000       0.0000000000
     -2.9857625999       5.1714913696       0.0000000000
      0.0000000000       0.0000000000       4.7158008500
Li Tb
2 6
direct
   0.6666666666666666    0.3333333333333333    0.2500000000000000 Li
   0.3333333333333333    0.6666666666666666    0.7500000000000000 Li
   0.8310220000000000    0.1689780000000000    0.7500000000000000 Tb
   0.3379560000000000    0.1689780000000000    0.7500000000000000 Tb
   0.8310220000000000    0.6620440000000000    0.7500000000000000 Tb
   0.1689780000000000    0.8310220000000000    0.2500000000000000 Tb
   0.6620440000000000    0.8310220000000000    0.2500000000000000 Tb
   0.1689780000000000    0.3379560000000000    0.2500000000000000 Tb
