Li2 Tb6
1.0
      6.3227903310       0.0000000000       0.0000000000
     -3.1613956940       5.4756967443       0.0000000000
      0.0000000000       0.0000000000       4.9932009000
Li Tb
2 6
direct
   0.6666666666666666    0.3333333333333333    0.2500000000000000 Li
   0.3333333333333333    0.6666666666666666    0.7500000000000000 Li
   0.8310220000000000    0.1689780000000000    0.7500000000000000 Tb
   0.3379560000000000    0.1689780000000000    0.7500000000000000 Tb
   0.8310220000000000    0.6620440000000000    0.7500000000000000 Tb
   0.1689780000000000    0.8310220000000000    0.2500000000000000 Tb
   0.6620440000000000    0.8310220000000000    0.2500000000000000 Tb
   0.1689780000000000    0.3379560000000000    0.2500000000000000 Tb
