Cu2 Cl2
1.0
      3.5920159300       0.0000000000       0.0000000000
     -1.7960066126       3.1107778270       0.0000000000
      0.0000000000       0.0000000000       5.9063293410
Cu Cl
2 2
direct
   0.0000000000000000    0.0000000000000000    0.3741242700000000 Cu
   0.3333333333333333    0.6666666666666666    0.8741242700000000 Cu
   0.0000000000000000    0.0000000000000000    0.0008757300000000 Cl
   0.3333333333333333    0.6666666666666666    0.5008747300000000 Cl
