Cu2 Cl2
1.0
      3.4029624600       0.0000000000       0.0000000000
     -1.7014799487       2.9470526782       0.0000000000
      0.0000000000       0.0000000000       5.5954699020
Cu Cl
2 2
direct
   0.0000000000000000    0.0000000000000000    0.3741242700000000 Cu
   0.3333333333333333    0.6666666666666666    0.8741242700000000 Cu
   0.0000000000000000    0.0000000000000000    0.0008757300000000 Cl
   0.3333333333333333    0.6666666666666666    0.5008747300000000 Cl
