K3 Tm1
1.0
      5.0298775868       0.0000000000       2.9040011788
      1.6766258623       4.7422140669       2.9040011788
      0.0000000000       0.0000000000       5.8080023575
K Tm
3 1
direct
   0.2500000000000000    0.2500000000000000    0.2500000000000000 K
   0.7500000000000000    0.7500000000000000    0.7500000000000000 K
   0.5000000000000000    0.5000000000000000    0.5000000000000000 K
   0.0000000000000000    0.0000000000000000    0.0000000000000000 Tm
