K3 Tm1
1.0
      4.4381272825       0.0000000000       2.5623539813
      1.4793757608       4.1843065296       2.5623539813
      0.0000000000       0.0000000000       5.1247079625
K Tm
3 1
direct
   0.2500000000000000    0.2500000000000000    0.2500000000000000 K
   0.7500000000000000    0.7500000000000000    0.7500000000000000 K
   0.5000000000000000    0.5000000000000000    0.5000000000000000 K
   0.0000000000000000    0.0000000000000000    0.0000000000000000 Tm
