K3 Tm1
1.0
      5.6216278912       0.0000000000       3.2456483763
      1.8738759637       5.3001216042       3.2456483763
      0.0000000000       0.0000000000       6.4912967525
K Tm
3 1
direct
   0.2500000000000000    0.2500000000000000    0.2500000000000000 K
   0.7500000000000000    0.7500000000000000    0.7500000000000000 K
   0.5000000000000000    0.5000000000000000    0.5000000000000000 K
   0.0000000000000000    0.0000000000000000    0.0000000000000000 Tm
