K3 Tm1
1.0
      5.3257527390       0.0000000000       3.0748247775
      1.7752509130       5.0211678356       3.0748247775
      0.0000000000       0.0000000000       6.1496495550
K Tm
3 1
direct
   0.2500000000000000    0.2500000000000000    0.2500000000000000 K
   0.7500000000000000    0.7500000000000000    0.7500000000000000 K
   0.5000000000000000    0.5000000000000000    0.5000000000000000 K
   0.0000000000000000    0.0000000000000000    0.0000000000000000 Tm
