Nd2 Zn17
1.0
      5.0307398885       0.0000000000       0.6218701481
      0.5497326774       5.0006139017       0.6218713193
      0.0000000000       0.0000000000       5.0690300025
Nd Zn
2 17
direct
   0.6636253000000000    0.6636253000000000    0.6636253000000000 Nd
   0.3363747000000000    0.3363747000000000    0.3363747000000000 Nd
   0.3493854000000000    0.3493854000000000    0.8391970300000000 Zn
   0.3493854000000000    0.8391970300000000    0.3493854000000000 Zn
   0.0987871900000000    0.0987871900000000    0.0987871900000000 Zn
   0.9012128100000000    0.9012128100000000    0.9012128100000000 Zn
   0.0000000000000000    0.0000000000000000    0.5000000000000000 Zn
   0.5000000000000000    0.0000000000000000    0.0000000000000000 Zn
   0.0000000000000000    0.5000000000000000    0.0000000000000000 Zn
   0.7079875500000000    0.2920124500000000    0.0000000000000000 Zn
   0.0000000000000000    0.7079875500000000    0.2920124500000000 Zn
   0.2920124500000000    0.0000000000000000    0.7079875500000000 Zn
   0.2920124500000000    0.7079875500000000    0.0000000000000000 Zn
   0.0000000000000000    0.2920124500000000    0.7079875500000000 Zn
   0.7079875500000000    0.0000000000000000    0.2920124500000000 Zn
   0.6506146000000000    0.1608029700000000    0.6506146000000000 Zn
   0.6506146000000000    0.6506146000000000    0.1608029700000000 Zn
   0.1608029700000000    0.6506146000000000    0.6506146000000000 Zn
   0.8391970300000000    0.3493854000000000    0.3493854000000000 Zn
