Li1 In3
1.0
      3.2799557850       0.0000000000      -3.0255800031
     -0.6293389576       3.2190126481      -3.0255800031
      0.0000000000       0.0000000000       4.4623137840
Li In
1 3
direct
   0.0000000000000000    0.0000000000000000    0.0000000000000000 Li
   0.7499980000000001    0.2499990000000000    0.4999990000000000 In
   0.2499990000000000    0.7499980000000001    0.4999990000000000 In
   0.5000010000000000    0.5000010000000000    0.0000000000000000 In
