Li1 In3
1.0
      3.0749585485       0.0000000000      -2.8364812529
     -0.5900052727       3.0178243575      -2.8364812529
      0.0000000000       0.0000000000       4.1834191725
Li In
1 3
direct
   0.0000000000000000    0.0000000000000000    0.0000000000000000 Li
   0.7499980000000001    0.2499990000000000    0.4999990000000000 In
   0.2499990000000000    0.7499980000000001    0.4999990000000000 In
   0.5000010000000000    0.5000010000000000    0.0000000000000000 In
