Li1 In3
1.0
      3.6899502582       0.0000000000      -3.4037775035
     -0.7080063273       3.6213892291      -3.4037775035
      0.0000000000       0.0000000000       5.0201030070
Li In
1 3
direct
   0.0000000000000000    0.0000000000000000    0.0000000000000000 Li
   0.7499980000000001    0.2499990000000000    0.4999990000000000 In
   0.2499990000000000    0.7499980000000001    0.4999990000000000 In
   0.5000010000000000    0.5000010000000000    0.0000000000000000 In
