Li1 In3
1.0
      3.4849530216       0.0000000000      -3.2146787533
     -0.6686726424       3.4202009386      -3.2146787533
      0.0000000000       0.0000000000       4.7412083955
Li In
1 3
direct
   0.0000000000000000    0.0000000000000000    0.0000000000000000 Li
   0.7499980000000001    0.2499990000000000    0.4999990000000000 In
   0.2499990000000000    0.7499980000000001    0.4999990000000000 In
   0.5000010000000000    0.5000010000000000    0.0000000000000000 In
