Mg2 H4
1.0
      2.2444027500       0.0000000000       0.0000000000
     -0.0000000000       3.3575205000       0.0000000000
      0.0000000000       0.0000000000       3.3575205000
Mg H
2 4
direct
   0.5000000000000000    0.5000000000000000    0.5000000000000000 Mg
   0.0000000000000000    0.0000000000000000    0.0000000000000000 Mg
   0.0000000000000000    0.6955720000000000    0.6955720000000000 H
   0.5000000000000000    0.8044280000000000    0.1955720000000000 H
   0.0000000000000000    0.3044280000000000    0.3044280000000000 H
   0.5000000000000000    0.1955720000000000    0.8044280000000000 H
