Cu6 N2
1.0
      3.3342408000       0.0000000000       0.0000000000
     -0.0000000000       3.3342408000       0.0000000000
      0.0000000000       0.0000000000       6.6248271000
Cu N
6 2
direct
   0.0000000000000000    0.0000000000000000    0.7620490000000000 Cu
   0.0000000000000000    0.0000000000000000    0.2379510000000000 Cu
   0.0000000000000000    0.5000000000000000    0.5000000000000000 Cu
   0.5000000000000000    0.0000000000000000    0.5000000000000000 Cu
   0.5000000000000000    0.5000000000000000    0.8288170000000000 Cu
   0.5000000000000000    0.5000000000000000    0.1711830000000000 Cu
   0.0000000000000000    0.0000000000000000    0.0000000000000000 N
   0.0000000000000000    0.0000000000000000    0.5000000000000000 N
