Li1 Pt1
1.0
      2.1970212640       0.0000000000       0.0000000000
     -1.0985118705       1.9026756415       0.0000000000
      0.0000000000       0.0000000000       3.3363720160
Li Pt
1 1
direct
   0.3333333333333333    0.6666666666666666    0.5000000000000000 Li
   0.0000000000000000    0.0000000000000000    0.0000000000000000 Pt
