Mn6 Ga2
1.0
      4.8846505015       0.0000000000       0.0000000000
     -2.4423246520       4.2302317686       0.0000000000
      0.0000000000       0.0000000000       3.9771227500
Mn Ga
6 2
direct
   0.8420210000000000    0.1579790000000000    0.2500000000000000 Mn
   0.8420210000000000    0.6840410000000000    0.2500000000000000 Mn
   0.3159590000000000    0.1579790000000000    0.2500000000000000 Mn
   0.1579790000000000    0.8420210000000000    0.7500000000000000 Mn
   0.1579790000000000    0.3159590000000000    0.7500000000000000 Mn
   0.6840410000000000    0.8420210000000000    0.7500000000000000 Mn
   0.3333333333333333    0.6666666666666666    0.2500000000000000 Ga
   0.6666666666666666    0.3333333333333333    0.7500000000000000 Ga
