Mn6 Ga2
1.0
      4.3704767645       0.0000000000       0.0000000000
     -2.1852378465       3.7849442140       0.0000000000
      0.0000000000       0.0000000000       3.5584782500
Mn Ga
6 2
direct
   0.8420210000000000    0.1579790000000000    0.2500000000000000 Mn
   0.8420210000000000    0.6840410000000000    0.2500000000000000 Mn
   0.3159590000000000    0.1579790000000000    0.2500000000000000 Mn
   0.1579790000000000    0.8420210000000000    0.7500000000000000 Mn
   0.1579790000000000    0.3159590000000000    0.7500000000000000 Mn
   0.6840410000000000    0.8420210000000000    0.7500000000000000 Mn
   0.3333333333333333    0.6666666666666666    0.2500000000000000 Ga
   0.6666666666666666    0.3333333333333333    0.7500000000000000 Ga
