K1 Rb3
1.0
      5.2081756553       0.0000000000      -4.6473651561
     -1.0449122418       5.1022791049      -4.6473651561
      0.0000000000       0.0000000000       6.9801931600
K Rb
1 3
direct
   0.0000000000000000    0.0000000000000000    0.0000000000000000 K
   0.7500000000000000    0.2500000000000000    0.5000000000000000 Rb
   0.2500000000000000    0.7500000000000000    0.5000000000000000 Rb
   0.5000000000000000    0.5000000000000000    0.0000000000000000 Rb
