K1 Rb3
1.0
      5.5336866338       0.0000000000      -4.9378254783
     -1.1102192569       5.4211715489      -4.9378254783
      0.0000000000       0.0000000000       7.4164552325
K Rb
1 3
direct
   0.0000000000000000    0.0000000000000000    0.0000000000000000 K
   0.7500000000000000    0.2500000000000000    0.5000000000000000 Rb
   0.2500000000000000    0.7500000000000000    0.5000000000000000 Rb
   0.5000000000000000    0.5000000000000000    0.0000000000000000 Rb
