K1 Rb3
1.0
      4.8826646769       0.0000000000      -4.3569048338
     -0.9796052267       4.7833866608      -4.3569048338
      0.0000000000       0.0000000000       6.5439310875
K Rb
1 3
direct
   0.0000000000000000    0.0000000000000000    0.0000000000000000 K
   0.7500000000000000    0.2500000000000000    0.5000000000000000 Rb
   0.2500000000000000    0.7500000000000000    0.5000000000000000 Rb
   0.5000000000000000    0.5000000000000000    0.0000000000000000 Rb
