K1 Rb3
1.0
      6.1847085907       0.0000000000      -5.5187461229
     -1.2408332871       6.0589564370      -5.5187461229
      0.0000000000       0.0000000000       8.2889793775
K Rb
1 3
direct
   0.0000000000000000    0.0000000000000000    0.0000000000000000 K
   0.7500000000000000    0.2500000000000000    0.5000000000000000 Rb
   0.2500000000000000    0.7500000000000000    0.5000000000000000 Rb
   0.5000000000000000    0.5000000000000000    0.0000000000000000 Rb
