K1 Rb3
1.0
      5.8591976123       0.0000000000      -5.2282858006
     -1.1755262720       5.7400639930      -5.2282858006
      0.0000000000       0.0000000000       7.8527173050
K Rb
1 3
direct
   0.0000000000000000    0.0000000000000000    0.0000000000000000 K
   0.7500000000000000    0.2500000000000000    0.5000000000000000 Rb
   0.2500000000000000    0.7500000000000000    0.5000000000000000 Rb
   0.5000000000000000    0.5000000000000000    0.0000000000000000 Rb
