Zr1 Zn1
1.0
      2.4924743850       0.0000000000       0.0000000000
     -0.0000000000       2.4924743850       0.0000000000
      0.0000000000       0.0000000000       2.4924743850
Zr Zn
1 1
direct
   0.5000000000000000    0.5000000000000000    0.5000000000000000 Zr
   0.0000000000000000    0.0000000000000000    0.0000000000000000 Zn
