K3 Lu1
1.0
      5.1745212000       0.0000000000       0.0000000000
     -0.0000000000       5.1745212000       0.0000000000
      0.0000000000       0.0000000000       5.1745212000
K Lu
3 1
direct
   0.0000000000000000    0.5000000000000000    0.5000000000000000 K
   0.5000000000000000    0.0000000000000000    0.5000000000000000 K
   0.5000000000000000    0.5000000000000000    0.0000000000000000 K
   0.0000000000000000    0.0000000000000000    0.0000000000000000 Lu
