K3 Lu1
1.0
      4.8701376000       0.0000000000       0.0000000000
     -0.0000000000       4.8701376000       0.0000000000
      0.0000000000       0.0000000000       4.8701376000
K Lu
3 1
direct
   0.0000000000000000    0.5000000000000000    0.5000000000000000 K
   0.5000000000000000    0.0000000000000000    0.5000000000000000 K
   0.5000000000000000    0.5000000000000000    0.0000000000000000 K
   0.0000000000000000    0.0000000000000000    0.0000000000000000 Lu
