Sr6 Li23
1.0
      7.7274365864       0.0000000000       4.4614408751
      2.5758159850       7.2854957421       4.4614408751
      0.0000000000       0.0000000000       8.9228805250
Sr Li
6 23
direct
   0.2060173500000000    0.2060173500000000    0.7939826500000000 Sr
   0.2060173500000000    0.7939826500000000    0.7939826500000000 Sr
   0.7939826500000000    0.2060173500000000    0.2060173500000000 Sr
   0.2060173500000000    0.7939826500000000    0.2060173500000000 Sr
   0.7939826500000000    0.2060173500000000    0.7939826500000000 Sr
   0.7939826500000000    0.7939826500000000    0.2060173500000000 Sr
   0.5000000000000000    0.5000000000000000    0.5000000000000000 Li
   0.5000000000000000    0.5000000000000000    0.0000000000000000 Li
   0.0000000000000000    0.5000000000000000    0.5000000000000000 Li
   0.5000000000000000    0.0000000000000000    0.0000000000000000 Li
   0.0000000000000000    0.0000000000000000    0.5000000000000000 Li
   0.0000000000000000    0.5000000000000000    0.0000000000000000 Li
   0.5000000000000000    0.0000000000000000    0.5000000000000000 Li
   0.6216925800000001    0.1349212600000000    0.6216925800000001 Li
   0.3783074200000000    0.3783074200000000    0.8650787400000000 Li
   0.8650787400000000    0.3783074200000000    0.3783074200000000 Li
   0.3783074200000000    0.3783074200000000    0.3783074200000000 Li
   0.1349212600000000    0.6216925800000001    0.6216925800000001 Li
   0.6216925800000001    0.6216925800000001    0.6216925800000001 Li
   0.6216925800000001    0.6216925800000001    0.1349212600000000 Li
   0.3783074200000000    0.8650787400000000    0.3783074200000000 Li
   0.8222408300000000    0.5332775000000000    0.8222408300000000 Li
   0.1777591700000000    0.1777591700000000    0.4667225000000000 Li
   0.4667225000000000    0.1777591700000000    0.1777591700000000 Li
   0.1777591700000000    0.1777591700000000    0.1777591700000000 Li
   0.5332775000000000    0.8222408300000000    0.8222408300000000 Li
   0.8222408300000000    0.8222408300000000    0.8222408300000000 Li
   0.8222408300000000    0.8222408300000000    0.5332775000000000 Li
   0.1777591700000000    0.4667225000000000    0.1777591700000000 Li
