K3 Zn1
1.0
      5.5563001500       0.0000000000       0.0000000000
     -0.0000000000       5.5563001500       0.0000000000
      0.0000000000       0.0000000000       5.5563001500
K Zn
3 1
direct
   0.5000000000000000    0.0000000000000000    0.5000000000000000 K
   0.5000000000000000    0.5000000000000000    0.0000000000000000 K
   0.0000000000000000    0.5000000000000000    0.5000000000000000 K
   0.0000000000000000    0.0000000000000000    0.0000000000000000 Zn
