K3 Zn1
1.0
      5.2638633000       0.0000000000       0.0000000000
     -0.0000000000       5.2638633000       0.0000000000
      0.0000000000       0.0000000000       5.2638633000
K Zn
3 1
direct
   0.5000000000000000    0.0000000000000000    0.5000000000000000 K
   0.5000000000000000    0.5000000000000000    0.0000000000000000 K
   0.0000000000000000    0.5000000000000000    0.5000000000000000 K
   0.0000000000000000    0.0000000000000000    0.0000000000000000 Zn
