U2 Mn4
1.0
      4.0291595750       0.0000000000      -2.1008818621
     -1.0491574185       3.4102876703      -2.8137231911
      0.0000000000       0.0000000000       4.5439884990
U Mn
2 4
direct
   0.6152700000000000    0.8652700000000000    0.7500000000000000 U
   0.3847300000000000    0.1347300000000000    0.2500000000000000 U
   0.5000000000000000    0.5000000000000000    0.0000000000000000 Mn
   0.0000000000000000    0.5000000000000000    0.5000000000000000 Mn
   0.0000000000000000    0.0000000000000000    0.5000000000000000 Mn
   0.0000000000000000    0.5000000000000000    0.0000000000000000 Mn
