U2 Mn4
1.0
      3.3576329791       0.0000000000      -1.7507348851
     -0.8742978487       2.8419063919      -2.3447693259
      0.0000000000       0.0000000000       3.7866570825
U Mn
2 4
direct
   0.6152700000000000    0.8652700000000000    0.7500000000000000 U
   0.3847300000000000    0.1347300000000000    0.2500000000000000 U
   0.5000000000000000    0.5000000000000000    0.0000000000000000 Mn
   0.0000000000000000    0.5000000000000000    0.5000000000000000 Mn
   0.0000000000000000    0.0000000000000000    0.5000000000000000 Mn
   0.0000000000000000    0.5000000000000000    0.0000000000000000 Mn
