U2 Mn4
1.0
      4.2530017736       0.0000000000      -2.2175975211
     -1.1074439417       3.5997480965      -2.9700411461
      0.0000000000       0.0000000000       4.7964323045
U Mn
2 4
direct
   0.6152700000000000    0.8652700000000000    0.7500000000000000 U
   0.3847300000000000    0.1347300000000000    0.2500000000000000 U
   0.5000000000000000    0.5000000000000000    0.0000000000000000 Mn
   0.0000000000000000    0.5000000000000000    0.5000000000000000 Mn
   0.0000000000000000    0.0000000000000000    0.5000000000000000 Mn
   0.0000000000000000    0.5000000000000000    0.0000000000000000 Mn
