U2 Mn4
1.0
      3.5814751778       0.0000000000      -1.8674505441
     -0.9325843720       3.0313668181      -2.5010872809
      0.0000000000       0.0000000000       4.0391008880
U Mn
2 4
direct
   0.6152700000000000    0.8652700000000000    0.7500000000000000 U
   0.3847300000000000    0.1347300000000000    0.2500000000000000 U
   0.5000000000000000    0.5000000000000000    0.0000000000000000 Mn
   0.0000000000000000    0.5000000000000000    0.5000000000000000 Mn
   0.0000000000000000    0.0000000000000000    0.5000000000000000 Mn
   0.0000000000000000    0.5000000000000000    0.0000000000000000 Mn
