U2 Mn4
1.0
      3.8053173764       0.0000000000      -1.9841662031
     -0.9908708952       3.2208272442      -2.6574052360
      0.0000000000       0.0000000000       4.2915446935
U Mn
2 4
direct
   0.6152700000000000    0.8652700000000000    0.7500000000000000 U
   0.3847300000000000    0.1347300000000000    0.2500000000000000 U
   0.5000000000000000    0.5000000000000000    0.0000000000000000 Mn
   0.0000000000000000    0.5000000000000000    0.5000000000000000 Mn
   0.0000000000000000    0.0000000000000000    0.5000000000000000 Mn
   0.0000000000000000    0.5000000000000000    0.0000000000000000 Mn
