Li3 Sn1
1.0
      3.0054064124       0.0000000000       1.7351722013
      1.0018021375       2.8335243393       1.7351722013
      0.0000000000       0.0000000000       3.4703444025
Li Sn
3 1
direct
   0.2500000000000000    0.2500000000000000    0.2500000000000000 Li
   0.7500000000000000    0.7500000000000000    0.7500000000000000 Li
   0.5000000000000000    0.5000000000000000    0.5000000000000000 Li
   0.0000000000000000    0.0000000000000000    0.0000000000000000 Sn
