Li3 Sn1
1.0
      3.4061272674       0.0000000000       1.9665284948
      1.1353757558       3.2113275845       1.9665284948
      0.0000000000       0.0000000000       3.9330569895
Li Sn
3 1
direct
   0.2500000000000000    0.2500000000000000    0.2500000000000000 Li
   0.7500000000000000    0.7500000000000000    0.7500000000000000 Li
   0.5000000000000000    0.5000000000000000    0.5000000000000000 Li
   0.0000000000000000    0.0000000000000000    0.0000000000000000 Sn
