K3 Mn1
1.0
      5.1618789000       0.0000000000       0.0000000000
     -0.0000000000       5.1618789000       0.0000000000
      0.0000000000       0.0000000000       5.1618789000
K Mn
3 1
direct
   0.0000000000000000    0.5000000000000000    0.5000000000000000 K
   0.5000000000000000    0.0000000000000000    0.5000000000000000 K
   0.5000000000000000    0.5000000000000000    0.0000000000000000 K
   0.0000000000000000    0.0000000000000000    0.0000000000000000 Mn
