Cu8 O1
1.0
      3.7551744635       0.0000000000       0.0000000000
     -0.0863109651       3.7541824235       0.0000000000
      0.0000000000       0.0000000000       4.6210896000
Cu O
8 1
direct
   0.7879100000000000    0.7879100000000000    0.5000000000000000 Cu
   0.2120900000000000    0.2120900000000000    0.5000000000000000 Cu
   0.8118010000000000    0.8118010000000000    0.0000000000000000 Cu
   0.1881990000000000    0.1881990000000000    0.0000000000000000 Cu
   0.2758380000000000    0.7241620000000000    0.2728370000000000 Cu
   0.2758380000000000    0.7241620000000000    0.7271630000000000 Cu
   0.7241620000000000    0.2758380000000000    0.7271630000000000 Cu
   0.7241620000000000    0.2758380000000000    0.2728370000000000 Cu
   0.5000000000000000    0.5000000000000000    0.0000000000000000 O
