Cu8 O1
1.0
      3.5342818480       0.0000000000       0.0000000000
     -0.0812338496       3.5333481633       0.0000000000
      0.0000000000       0.0000000000       4.3492608000
Cu O
8 1
direct
   0.7879100000000000    0.7879100000000000    0.5000000000000000 Cu
   0.2120900000000000    0.2120900000000000    0.5000000000000000 Cu
   0.8118010000000000    0.8118010000000000    0.0000000000000000 Cu
   0.1881990000000000    0.1881990000000000    0.0000000000000000 Cu
   0.2758380000000000    0.7241620000000000    0.2728370000000000 Cu
   0.2758380000000000    0.7241620000000000    0.7271630000000000 Cu
   0.7241620000000000    0.2758380000000000    0.7271630000000000 Cu
   0.7241620000000000    0.2758380000000000    0.2728370000000000 Cu
   0.5000000000000000    0.5000000000000000    0.0000000000000000 O
