Li3 Cr1
1.0
      3.0511441282       0.0000000000       1.7615788838
      1.0170480427       2.8766462712       1.7615788838
      0.0000000000       0.0000000000       3.5231577675
Li Cr
3 1
direct
   0.5000000000000000    0.5000000000000000    0.5000000000000000 Li
   0.7500000000000000    0.7500000000000000    0.7500000000000000 Li
   0.2500000000000000    0.2500000000000000    0.2500000000000000 Li
   0.0000000000000000    0.0000000000000000    0.0000000000000000 Cr
