Li3 Cr1
1.0
      3.2545537367       0.0000000000       1.8790174760
      1.0848512456       3.0684226893       1.8790174760
      0.0000000000       0.0000000000       3.7580349520
Li Cr
3 1
direct
   0.5000000000000000    0.5000000000000000    0.5000000000000000 Li
   0.7500000000000000    0.7500000000000000    0.7500000000000000 Li
   0.2500000000000000    0.2500000000000000    0.2500000000000000 Li
   0.0000000000000000    0.0000000000000000    0.0000000000000000 Cr
