Li1 Mg1
1.0
      2.6652794012       0.0000000000       4.0482864750
      1.2129959096       2.3732583529       4.0482864750
      0.0000000000       0.0000000000       4.8468892950
Li Mg
1 1
direct
   0.0000000000000000    0.0000000000000000    0.0000000000000000 Li
   0.5000000000000000    0.5000000000000000    0.5000000000000000 Mg
