Li1 Mg1
1.0
      2.2210661676       0.0000000000       3.3735720625
      1.0108299247       1.9777152941       3.3735720625
      0.0000000000       0.0000000000       4.0390744125
Li Mg
1 1
direct
   0.0000000000000000    0.0000000000000000    0.0000000000000000 Li
   0.5000000000000000    0.5000000000000000    0.5000000000000000 Mg
