Li1 Mg1
1.0
      2.3691372455       0.0000000000       3.5984768667
      1.0782185863       2.1095629803       3.5984768667
      0.0000000000       0.0000000000       4.3083460400
Li Mg
1 1
direct
   0.0000000000000000    0.0000000000000000    0.0000000000000000 Li
   0.5000000000000000    0.5000000000000000    0.5000000000000000 Mg
