K3 Li1
1.0
      4.9481576000       0.0000000000       0.0000000000
     -0.0000000000       4.9481576000       0.0000000000
      0.0000000000       0.0000000000       4.9481576000
K Li
3 1
direct
   0.0000000000000000    0.5000000000000000    0.5000000000000000 K
   0.5000000000000000    0.0000000000000000    0.5000000000000000 K
   0.5000000000000000    0.5000000000000000    0.0000000000000000 K
   0.0000000000000000    0.0000000000000000    0.0000000000000000 Li
