Cu8 O6
1.0
      4.6515235510       0.0000000000      -2.3502072006
     -1.1892165970       4.4969207301      -2.3502002287
      0.0000000000       0.0000000000       5.7800495430
Cu O
8 6
direct
   0.5000000000000000    0.5000000000000000    0.5000000000000000 Cu
   0.5000000000000000    0.0000000000000000    0.0000000000000000 Cu
   0.0000000000000000    0.5000000000000000    0.5000000000000000 Cu
   0.5000000000000000    0.5000000000000000    0.0000000000000000 Cu
   0.0000000000000000    0.5000000000000000    0.0000000000000000 Cu
   0.0000000000000000    0.0000000000000000    0.5000000000000000 Cu
   0.5000000000000000    0.0000000000000000    0.5000000000000000 Cu
   0.0000000000000000    0.0000000000000000    0.0000000000000000 Cu
   0.6249959200000000    0.3750047800000000    0.2500004100000000 O
   0.3750040800000000    0.6249952200000000    0.7499995900000000 O
   0.6365794900000000    0.8865840100000000    0.2731358200000000 O
   0.8865833200000000    0.6365784300000000    0.7731345600000000 O
   0.3634205100000000    0.1134159900000000    0.7268641800000000 O
   0.1134166800000000    0.3634215700000000    0.2268654400000000 O
