Ca2 Zn4
1.0
      3.3367489578       0.0000000000       1.4530480957
      1.6485659521       4.1784282796       0.7720131776
      0.0000000000       0.0000000000       4.5577446240
Ca Zn
2 4
direct
   0.5526837200000000    0.6973162800000000    0.1973162800000000 Ca
   0.4473162800000000    0.3026837200000000    0.8026837200000000 Ca
   0.1634873600000000    0.2723318400000000    0.4006964400000000 Zn
   0.8365126400000000    0.7276681600000000    0.5993035600000000 Zn
   0.1634873600000000    0.9006964400000000    0.7723318400000000 Zn
   0.8365126400000000    0.0993035600000000    0.2276681600000000 Zn
