Li1 Mg3
1.0
      3.8796753571       0.0000000000      -2.7663469601
     -0.3409825292       2.3986653880      -4.1030100720
      0.0000000000       0.0000000000       4.7649298400
Li Mg
1 3
direct
   0.8316279900000000    0.5000000000000000    0.3316279900000000 Li
   0.3354452400000000    0.0000000000000000    0.3354452400000000 Mg
   0.7506974300000000    0.7509005500000000    0.9997958800000000 Mg
   0.2488953400000000    0.2490994500000000    0.9997958800000000 Mg
