Li1 Mg3
1.0
      4.1221550669       0.0000000000      -2.9392436451
     -0.3622939373       2.5485819747      -4.3594482015
      0.0000000000       0.0000000000       5.0627379550
Li Mg
1 3
direct
   0.8316279900000000    0.5000000000000000    0.3316279900000000 Li
   0.3354452400000000    0.0000000000000000    0.3354452400000000 Mg
   0.7506974300000000    0.7509005500000000    0.9997958800000000 Mg
   0.2488953400000000    0.2490994500000000    0.9997958800000000 Mg
