Li1 Mg3
1.0
      4.3646347768       0.0000000000      -3.1121403301
     -0.3836053454       2.6984985615      -4.6158863311
      0.0000000000       0.0000000000       5.3605460700
Li Mg
1 3
direct
   0.8316279900000000    0.5000000000000000    0.3316279900000000 Li
   0.3354452400000000    0.0000000000000000    0.3354452400000000 Mg
   0.7506974300000000    0.7509005500000000    0.9997958800000000 Mg
   0.2488953400000000    0.2490994500000000    0.9997958800000000 Mg
