Li1 Mg3
1.0
      4.6071144866       0.0000000000      -3.2850370151
     -0.4049167535       2.8484151482      -4.8723244606
      0.0000000000       0.0000000000       5.6583541850
Li Mg
1 3
direct
   0.8316279900000000    0.5000000000000000    0.3316279900000000 Li
   0.3354452400000000    0.0000000000000000    0.3354452400000000 Mg
   0.7506974300000000    0.7509005500000000    0.9997958800000000 Mg
   0.2488953400000000    0.2490994500000000    0.9997958800000000 Mg
