K4 C1
1.0
      5.8230311966       0.0000000000      -0.4044789833
     -5.0683157637       2.8670311536      -0.4044789833
      0.0000000000       0.0000000000       5.8370622375
K C
4 1
direct
   0.7314889999999999    0.5000000000000000    0.2314890000000000 K
   0.2685110000000000    0.5000000000000000    0.7685110000000001 K
   0.5000000000000000    0.7314889999999999    0.2314890000000000 K
   0.5000000000000000    0.2685110000000000    0.7685110000000001 K
   0.0000000000000000    0.0000000000000000    0.0000000000000000 C
