K4 C1
1.0
      6.9876374359       0.0000000000      -0.4853747800
     -6.0819789165       3.4404373843      -0.4853747800
      0.0000000000       0.0000000000       7.0044746850
K C
4 1
direct
   0.7314889999999999    0.5000000000000000    0.2314890000000000 K
   0.2685110000000000    0.5000000000000000    0.7685110000000001 K
   0.5000000000000000    0.7314889999999999    0.2314890000000000 K
   0.5000000000000000    0.2685110000000000    0.7685110000000001 K
   0.0000000000000000    0.0000000000000000    0.0000000000000000 C
