K4 C1
1.0
      7.3758395157       0.0000000000      -0.5123400456
     -6.4198666341       3.6315727945      -0.5123400456
      0.0000000000       0.0000000000       7.3936121675
K C
4 1
direct
   0.7314889999999999    0.5000000000000000    0.2314890000000000 K
   0.2685110000000000    0.5000000000000000    0.7685110000000001 K
   0.5000000000000000    0.7314889999999999    0.2314890000000000 K
   0.5000000000000000    0.2685110000000000    0.7685110000000001 K
   0.0000000000000000    0.0000000000000000    0.0000000000000000 C
