K4 C1
1.0
      6.2112332764       0.0000000000      -0.4314442489
     -5.4062034813       3.0581665638      -0.4314442489
      0.0000000000       0.0000000000       6.2261997200
K C
4 1
direct
   0.7314889999999999    0.5000000000000000    0.2314890000000000 K
   0.2685110000000000    0.5000000000000000    0.7685110000000001 K
   0.5000000000000000    0.7314889999999999    0.2314890000000000 K
   0.5000000000000000    0.2685110000000000    0.7685110000000001 K
   0.0000000000000000    0.0000000000000000    0.0000000000000000 C
