K4 C1
1.0
      6.5994353561       0.0000000000      -0.4584095145
     -5.7440911989       3.2493019741      -0.4584095145
      0.0000000000       0.0000000000       6.6153372025
K C
4 1
direct
   0.7314889999999999    0.5000000000000000    0.2314890000000000 K
   0.2685110000000000    0.5000000000000000    0.7685110000000001 K
   0.5000000000000000    0.7314889999999999    0.2314890000000000 K
   0.5000000000000000    0.2685110000000000    0.7685110000000001 K
   0.0000000000000000    0.0000000000000000    0.0000000000000000 C
