Li3 Pt1
1.0
      3.1938737022       0.0000000000      -2.6045486417
     -0.7202256875       3.1116079742      -2.6045486417
      0.0000000000       0.0000000000       4.1212258920
Li Pt
3 1
direct
   0.7500000000000000    0.2500000000000000    0.5000000000000000 Li
   0.2500000000000000    0.7500000000000000    0.5000000000000000 Li
   0.5000000000000000    0.5000000000000000    0.0000000000000000 Li
   0.0000000000000000    0.0000000000000000    0.0000000000000000 Pt
