Li3 Pt1
1.0
      3.3713111301       0.0000000000      -2.7492457885
     -0.7602382257       3.2844750838      -2.7492457885
      0.0000000000       0.0000000000       4.3501828860
Li Pt
3 1
direct
   0.7500000000000000    0.2500000000000000    0.5000000000000000 Li
   0.2500000000000000    0.7500000000000000    0.5000000000000000 Li
   0.5000000000000000    0.5000000000000000    0.0000000000000000 Li
   0.0000000000000000    0.0000000000000000    0.0000000000000000 Pt
