Li3 Pt1
1.0
      2.8389988464       0.0000000000      -2.3151543482
     -0.6402006111       2.7658737548      -2.3151543482
      0.0000000000       0.0000000000       3.6633119040
Li Pt
3 1
direct
   0.7500000000000000    0.2500000000000000    0.5000000000000000 Li
   0.2500000000000000    0.7500000000000000    0.5000000000000000 Li
   0.5000000000000000    0.5000000000000000    0.0000000000000000 Li
   0.0000000000000000    0.0000000000000000    0.0000000000000000 Pt
