Li3 Pt1
1.0
      3.0164362743       0.0000000000      -2.4598514950
     -0.6802131493       2.9387408645      -2.4598514950
      0.0000000000       0.0000000000       3.8922688980
Li Pt
3 1
direct
   0.7500000000000000    0.2500000000000000    0.5000000000000000 Li
   0.2500000000000000    0.7500000000000000    0.5000000000000000 Li
   0.5000000000000000    0.5000000000000000    0.0000000000000000 Li
   0.0000000000000000    0.0000000000000000    0.0000000000000000 Pt
