Li3 Pt1
1.0
      2.6615614185       0.0000000000      -2.1704572014
     -0.6001880729       2.5930066451      -2.1704572014
      0.0000000000       0.0000000000       3.4343549100
Li Pt
3 1
direct
   0.7500000000000000    0.2500000000000000    0.5000000000000000 Li
   0.2500000000000000    0.7500000000000000    0.5000000000000000 Li
   0.5000000000000000    0.5000000000000000    0.0000000000000000 Li
   0.0000000000000000    0.0000000000000000    0.0000000000000000 Pt
