K1 P1
1.0
      3.7419850030       0.0000000000      -2.0620588715
     -1.2219342875       3.4501943286      -2.2039905272
      0.0000000000       0.0000000000       4.2725330370
K P
1 1
direct
   0.0000000000000000    0.0000000000000000    0.0000000000000000 K
   0.5000000000000000    0.5000000000000000    0.0000000000000000 P
