K1 P1
1.0
      3.9498730587       0.0000000000      -2.1766176977
     -1.2898195256       3.6418717913      -2.3264344454
      0.0000000000       0.0000000000       4.5098959835
K P
1 1
direct
   0.0000000000000000    0.0000000000000000    0.0000000000000000 K
   0.5000000000000000    0.5000000000000000    0.0000000000000000 P
