K1 P1
1.0
      3.3262088916       0.0000000000      -1.8329412191
     -1.0861638111       3.0668394032      -1.9591026909
      0.0000000000       0.0000000000       3.7978071440
K P
1 1
direct
   0.0000000000000000    0.0000000000000000    0.0000000000000000 K
   0.5000000000000000    0.5000000000000000    0.0000000000000000 P
