K1 P1
1.0
      3.1183208358       0.0000000000      -1.7183823929
     -1.0182785729       2.8751619405      -1.8366587727
      0.0000000000       0.0000000000       3.5604441975
K P
1 1
direct
   0.0000000000000000    0.0000000000000000    0.0000000000000000 K
   0.5000000000000000    0.5000000000000000    0.0000000000000000 P
