K1 P1
1.0
      3.5340969473       0.0000000000      -1.9475000453
     -1.1540490493       3.2585168659      -2.0815466091
      0.0000000000       0.0000000000       4.0351700905
K P
1 1
direct
   0.0000000000000000    0.0000000000000000    0.0000000000000000 K
   0.5000000000000000    0.5000000000000000    0.0000000000000000 P
