Li26 In6
1.0
      7.6883310027       0.0000000000       4.4388596770
      2.5627773178       7.2486274965       4.4388596820
      0.0000000000       0.0000000000       8.8777213005
Li In
26 6
direct
   0.8750000000000000    0.8750000000000000    0.8750000000000000 Li
   0.1250000000000000    0.1250000000000000    0.1250000000000000 Li
   0.5000000000000000    0.5000000000000000    0.5000000000000000 Li
   0.5000000000000000    0.5000000000000000    0.0000000000000000 Li
   0.0000000000000000    0.5000000000000000    0.5000000000000000 Li
   0.5000000000000000    0.0000000000000000    0.5000000000000000 Li
   0.2442717600000000    0.2442717600000000    0.2442717600000000 Li
   0.7557282400000001    0.7557282400000001    0.2328172800000000 Li
   0.2328172800000000    0.7557282400000001    0.7557282400000001 Li
   0.7557282400000001    0.2328172800000000    0.7557282400000001 Li
   0.7671827200000000    0.2442717600000000    0.2442717600000000 Li
   0.2442717600000000    0.7671827200000000    0.2442717600000000 Li
   0.2442717600000000    0.2442717600000000    0.7671827200000000 Li
   0.7557282400000001    0.7557282400000001    0.7557282400000001 Li
   0.6218386299999999    0.1281613700000000    0.1281613700000000 Li
   0.8718386299999999    0.8718386299999999    0.3781613700000000 Li
   0.3781613700000000    0.3781613700000000    0.8718386299999999 Li
   0.8718386299999999    0.3781613700000000    0.3781613700000000 Li
   0.8718386299999999    0.3781613700000000    0.8718386299999999 Li
   0.3781613700000000    0.8718386299999999    0.3781613700000000 Li
   0.1281613700000000    0.6218386299999999    0.1281613700000000 Li
   0.1281613700000000    0.1281613700000000    0.6218386299999999 Li
   0.6218386299999999    0.6218386299999999    0.1281613700000000 Li
   0.6218386299999999    0.1281613700000000    0.6218386299999999 Li
   0.3781613700000000    0.8718386299999999    0.8718386299999999 Li
   0.1281613700000000    0.6218386299999999    0.6218386299999999 Li
   0.3750000000000000    0.3750000000000000    0.3750000000000000 In
   0.6250000000000000    0.6250000000000000    0.6250000000000000 In
   0.0000000000000000    0.0000000000000000    0.0000000000000000 In
   0.0000000000000000    0.0000000000000000    0.5000000000000000 In
   0.5000000000000000    0.0000000000000000    0.0000000000000000 In
   0.0000000000000000    0.5000000000000000    0.0000000000000000 In
