K6 Tm2
1.0
      6.4391440950       0.0000000000       0.0000000000
     -3.2195716446       5.5764625975       0.0000000000
      0.0000000000       0.0000000000       5.3093535000
K Tm
6 2
direct
   0.1715840000000000    0.3431680000000000    0.2500000000000000 K
   0.6568320000000000    0.8284160000000000    0.2500000000000000 K
   0.1715840000000000    0.8284160000000000    0.2500000000000000 K
   0.8284160000000000    0.6568320000000000    0.7500000000000000 K
   0.3431680000000000    0.1715840000000000    0.7500000000000000 K
   0.8284160000000000    0.1715840000000000    0.7500000000000000 K
   0.3333333333333333    0.6666666666666666    0.7500000000000000 Tm
   0.6666666666666666    0.3333333333333333    0.2500000000000000 Tm
