K6 Tm2
1.0
      8.1562491870       0.0000000000       0.0000000000
     -4.0781240831       7.0635192902       0.0000000000
      0.0000000000       0.0000000000       6.7251811000
K Tm
6 2
direct
   0.1715840000000000    0.3431680000000000    0.2500000000000000 K
   0.6568320000000000    0.8284160000000000    0.2500000000000000 K
   0.1715840000000000    0.8284160000000000    0.2500000000000000 K
   0.8284160000000000    0.6568320000000000    0.7500000000000000 K
   0.3431680000000000    0.1715840000000000    0.7500000000000000 K
   0.8284160000000000    0.1715840000000000    0.7500000000000000 K
   0.3333333333333333    0.6666666666666666    0.7500000000000000 Tm
   0.6666666666666666    0.3333333333333333    0.2500000000000000 Tm
