K3 Bi1
1.0
      4.2250209754       0.0000000000       2.4393168795
      1.4083403287       3.9833878664       2.4393168812
      0.0000000000       0.0000000000       4.8786329520
K Bi
3 1
direct
   0.2500000000000000    0.2500000000000000    0.2500000000000000 K
   0.7500000000000000    0.7500000000000000    0.7500000000000000 K
   0.5000000000000000    0.5000000000000000    0.5000000000000000 K
   0.0000000000000000    0.0000000000000000    0.0000000000000000 Bi
