K3 Bi1
1.0
      3.9609571645       0.0000000000       2.2868595745
      1.3203190581       3.7344261248       2.2868595762
      0.0000000000       0.0000000000       4.5737183925
K Bi
3 1
direct
   0.2500000000000000    0.2500000000000000    0.2500000000000000 K
   0.7500000000000000    0.7500000000000000    0.7500000000000000 K
   0.5000000000000000    0.5000000000000000    0.5000000000000000 K
   0.0000000000000000    0.0000000000000000    0.0000000000000000 Bi
