K3 Bi1
1.0
      4.4890847864       0.0000000000       2.5917741845
      1.4963615992       4.2323496081       2.5917741863
      0.0000000000       0.0000000000       5.1835475115
K Bi
3 1
direct
   0.2500000000000000    0.2500000000000000    0.2500000000000000 K
   0.7500000000000000    0.7500000000000000    0.7500000000000000 K
   0.5000000000000000    0.5000000000000000    0.5000000000000000 K
   0.0000000000000000    0.0000000000000000    0.0000000000000000 Bi
