K3 Bi1
1.0
      5.0172124083       0.0000000000       2.8966887944
      1.6724041403       4.7302730914       2.8966887965
      0.0000000000       0.0000000000       5.7933766305
K Bi
3 1
direct
   0.2500000000000000    0.2500000000000000    0.2500000000000000 K
   0.7500000000000000    0.7500000000000000    0.7500000000000000 K
   0.5000000000000000    0.5000000000000000    0.5000000000000000 K
   0.0000000000000000    0.0000000000000000    0.0000000000000000 Bi
