K3 Bi1
1.0
      4.7531485974       0.0000000000       2.7442314895
      1.5843828698       4.4813113497       2.7442314914
      0.0000000000       0.0000000000       5.4884620710
K Bi
3 1
direct
   0.2500000000000000    0.2500000000000000    0.2500000000000000 K
   0.7500000000000000    0.7500000000000000    0.7500000000000000 K
   0.5000000000000000    0.5000000000000000    0.5000000000000000 K
   0.0000000000000000    0.0000000000000000    0.0000000000000000 Bi
