Zn2 Ni2
1.0
      2.3864650350       0.0000000000       0.0000000000
     -0.0000000000       2.8601498100       0.0000000000
      0.0000000000       0.0000000000       2.8601498100
Zn Ni
2 2
direct
   0.5000000000000000    0.0000000000000000    0.5000000000000000 Zn
   0.5000000000000000    0.5000000000000000    0.0000000000000000 Zn
   0.0000000000000000    0.0000000000000000    0.0000000000000000 Ni
   0.0000000000000000    0.5000000000000000    0.5000000000000000 Ni
