Zn2 Ni2
1.0
      3.0228557110       0.0000000000       0.0000000000
     -0.0000000000       3.6228564260       0.0000000000
      0.0000000000       0.0000000000       3.6228564260
Zn Ni
2 2
direct
   0.5000000000000000    0.0000000000000000    0.5000000000000000 Zn
   0.5000000000000000    0.5000000000000000    0.0000000000000000 Zn
   0.0000000000000000    0.0000000000000000    0.0000000000000000 Ni
   0.0000000000000000    0.5000000000000000    0.5000000000000000 Ni
