Cu2 O4
1.0
      3.9588765200       0.0000000000       0.0000000000
     -3.3503671517       2.1089673420       0.0000000000
      0.0000000000       0.0000000000       8.8287944720
Cu O
2 4
direct
   0.6415162700000000    0.6415162700000000    0.7500000000000000 Cu
   0.3584837300000000    0.3584837300000000    0.2500000000000000 Cu
   0.1417629500000000    0.1417629500000000    0.6428257000000001 O
   0.8582370499999999    0.8582370499999999    0.1428257000000000 O
   0.8582370499999999    0.8582370499999999    0.3571743000000000 O
   0.1417629500000000    0.1417629500000000    0.8571742999999999 O
