Cu1 Ru3
1.0
      2.9058466847       0.0000000000      -2.7721728319
     -0.5324787155       2.8566433751      -2.7721728319
      0.0000000000       0.0000000000       4.0160785805
Cu Ru
1 3
direct
   0.0000000000000000    0.0000000000000000    0.0000000000000000 Cu
   0.7500000000000000    0.2500000000000000    0.5000000000000000 Ru
   0.2500000000000000    0.7500000000000000    0.5000000000000000 Ru
   0.5000000000000000    0.5000000000000000    0.0000000000000000 Ru
