Cu1 Ru3
1.0
      3.0767788426       0.0000000000      -2.9352418220
     -0.5638009929       3.0246812207      -2.9352418220
      0.0000000000       0.0000000000       4.2523184970
Cu Ru
1 3
direct
   0.0000000000000000    0.0000000000000000    0.0000000000000000 Cu
   0.7500000000000000    0.2500000000000000    0.5000000000000000 Ru
   0.2500000000000000    0.7500000000000000    0.5000000000000000 Ru
   0.5000000000000000    0.5000000000000000    0.0000000000000000 Ru
