Cu1 Ru3
1.0
      3.2477110005       0.0000000000      -3.0983108121
     -0.5951232703       3.1927190662      -3.0983108121
      0.0000000000       0.0000000000       4.4885584135
Cu Ru
1 3
direct
   0.0000000000000000    0.0000000000000000    0.0000000000000000 Cu
   0.7500000000000000    0.2500000000000000    0.5000000000000000 Ru
   0.2500000000000000    0.7500000000000000    0.5000000000000000 Ru
   0.5000000000000000    0.5000000000000000    0.0000000000000000 Ru
