Cu1 Ru3
1.0
      2.7349145267       0.0000000000      -2.6091038418
     -0.5011564381       2.6886055295      -2.6091038418
      0.0000000000       0.0000000000       3.7798386640
Cu Ru
1 3
direct
   0.0000000000000000    0.0000000000000000    0.0000000000000000 Cu
   0.7500000000000000    0.2500000000000000    0.5000000000000000 Ru
   0.2500000000000000    0.7500000000000000    0.5000000000000000 Ru
   0.5000000000000000    0.5000000000000000    0.0000000000000000 Ru
