Cu1 Ru3
1.0
      2.5639823688       0.0000000000      -2.4460348517
     -0.4698341608       2.5205676839      -2.4460348517
      0.0000000000       0.0000000000       3.5435987475
Cu Ru
1 3
direct
   0.0000000000000000    0.0000000000000000    0.0000000000000000 Cu
   0.7500000000000000    0.2500000000000000    0.5000000000000000 Ru
   0.2500000000000000    0.7500000000000000    0.5000000000000000 Ru
   0.5000000000000000    0.5000000000000000    0.0000000000000000 Ru
