Li1 Cu3
1.0
      2.4536485321       0.0000000000      -2.2207619723
     -0.4830145948       2.4056367183      -2.2207619723
      0.0000000000       0.0000000000       3.3094070250
Li Cu
1 3
direct
   0.0000000000000000    0.0000000000000000    0.0000000000000000 Li
   0.7499990000000000    0.2500000000000000    0.4999990000000000 Cu
   0.2500000000000000    0.7499990000000000    0.4999990000000000 Cu
   0.5000010000000000    0.5000010000000000    0.0000000000000000 Cu
