Li1 Cu3
1.0
      3.1079548074       0.0000000000      -2.8129651650
     -0.6118184867       3.0471398432      -2.8129651650
      0.0000000000       0.0000000000       4.1919155650
Li Cu
1 3
direct
   0.0000000000000000    0.0000000000000000    0.0000000000000000 Li
   0.7499990000000000    0.2500000000000000    0.4999990000000000 Cu
   0.2500000000000000    0.7499990000000000    0.4999990000000000 Cu
   0.5000010000000000    0.5000010000000000    0.0000000000000000 Cu
