Li1 Cu3
1.0
      2.6172251010       0.0000000000      -2.3688127705
     -0.5152155678       2.5660124995      -2.3688127705
      0.0000000000       0.0000000000       3.5300341600
Li Cu
1 3
direct
   0.0000000000000000    0.0000000000000000    0.0000000000000000 Li
   0.7499990000000000    0.2500000000000000    0.4999990000000000 Cu
   0.2500000000000000    0.7499990000000000    0.4999990000000000 Cu
   0.5000010000000000    0.5000010000000000    0.0000000000000000 Cu
