Li1 Cu3
1.0
      2.9443782386       0.0000000000      -2.6649143668
     -0.5796175138       2.8867640620      -2.6649143668
      0.0000000000       0.0000000000       3.9712884300
Li Cu
1 3
direct
   0.0000000000000000    0.0000000000000000    0.0000000000000000 Li
   0.7499990000000000    0.2500000000000000    0.4999990000000000 Cu
   0.2500000000000000    0.7499990000000000    0.4999990000000000 Cu
   0.5000010000000000    0.5000010000000000    0.0000000000000000 Cu
