K3 Ho1
1.0
      5.0560699783       0.0000000000       2.9191233630
      1.6853566594       4.7669084904       2.9191233630
      0.0000000000       0.0000000000       5.8382467260
K Ho
3 1
direct
   0.2500000000000000    0.2500000000000000    0.2500000000000000 K
   0.7500000000000000    0.7500000000000000    0.7500000000000000 K
   0.5000000000000000    0.5000000000000000    0.5000000000000000 K
   0.0000000000000000    0.0000000000000000    0.0000000000000000 Ho
