K3 Ho1
1.0
      4.7586540972       0.0000000000       2.7474102240
      1.5862180324       4.4865021086       2.7474102240
      0.0000000000       0.0000000000       5.4948204480
K Ho
3 1
direct
   0.2500000000000000    0.2500000000000000    0.2500000000000000 K
   0.7500000000000000    0.7500000000000000    0.7500000000000000 K
   0.5000000000000000    0.5000000000000000    0.5000000000000000 K
   0.0000000000000000    0.0000000000000000    0.0000000000000000 Ho
