K3 Ho1
1.0
      5.3534858594       0.0000000000       3.0908365020
      1.7844952865       5.0473148722       3.0908365020
      0.0000000000       0.0000000000       6.1816730040
K Ho
3 1
direct
   0.2500000000000000    0.2500000000000000    0.2500000000000000 K
   0.7500000000000000    0.7500000000000000    0.7500000000000000 K
   0.5000000000000000    0.5000000000000000    0.5000000000000000 K
   0.0000000000000000    0.0000000000000000    0.0000000000000000 Ho
