K3 Ho1
1.0
      4.4612382161       0.0000000000       2.5756970850
      1.4870794054       4.2060957268       2.5756970850
      0.0000000000       0.0000000000       5.1513941700
K Ho
3 1
direct
   0.2500000000000000    0.2500000000000000    0.2500000000000000 K
   0.7500000000000000    0.7500000000000000    0.7500000000000000 K
   0.5000000000000000    0.5000000000000000    0.5000000000000000 K
   0.0000000000000000    0.0000000000000000    0.0000000000000000 Ho
