K3 Ho1
1.0
      5.6509017404       0.0000000000       3.2625496410
      1.8836339135       5.3277212540       3.2625496410
      0.0000000000       0.0000000000       6.5250992820
K Ho
3 1
direct
   0.2500000000000000    0.2500000000000000    0.2500000000000000 K
   0.7500000000000000    0.7500000000000000    0.7500000000000000 K
   0.5000000000000000    0.5000000000000000    0.5000000000000000 K
   0.0000000000000000    0.0000000000000000    0.0000000000000000 Ho
