Li2 Ca8
1.0
      5.7643038717       0.0000000000       3.3280223920
      1.9214346239       5.4346378086       3.3280223920
      0.0000000000       0.0000000000       6.6560447840
Li Ca
2 8
direct
   0.0000000000000000    0.0000000000000000    0.0000000000000000 Li
   0.2500000000000000    0.2500000000000000    0.2500000000000000 Li
   0.3898340000000000    0.3898340000000000    0.3898340000000000 Ca
   0.3898340000000000    0.3898340000000000    0.8304990000000000 Ca
   0.3898340000000000    0.8304990000000000    0.3898340000000000 Ca
   0.8601660000000000    0.8601660000000000    0.4195010000000000 Ca
   0.8601660000000000    0.8601660000000000    0.8601660000000000 Ca
   0.8304990000000000    0.3898340000000000    0.3898340000000000 Ca
   0.8601660000000000    0.4195010000000000    0.8601660000000000 Ca
   0.4195010000000000    0.8601660000000000    0.8601660000000000 Ca
