Li1 U1
1.0
      2.4187294000       0.0000000000       0.0000000000
     -1.2093039178       2.0947132229      -0.0000003723
      0.0000000000       0.0000000000       4.7826091500
Li U
1 1
direct
   0.6666666666666666    0.3333333333333333    0.7500000000000000 Li
   0.3333333333333333    0.6666666666666666    0.2500000000000000 U
