Li6 Tm2
1.0
      5.1796437280       0.0000000000       0.0000000000
     -2.5898223893       4.4857027477       0.0000000000
      0.0000000000       0.0000000000       4.0122968000
Li Tm
6 2
direct
   0.1539930000000000    0.3079850000000000    0.2500000000000000 Li
   0.6920150000000000    0.8460070000000000    0.2500000000000000 Li
   0.1539930000000000    0.8460070000000000    0.2500000000000000 Li
   0.8460070000000000    0.6920150000000000    0.7500000000000000 Li
   0.3079850000000000    0.1539930000000000    0.7500000000000000 Li
   0.8460070000000000    0.1539930000000000    0.7500000000000000 Li
   0.3333333333333333    0.6666666666666666    0.7500000000000000 Tm
   0.6666666666666666    0.3333333333333333    0.2500000000000000 Tm
