Li1 Ga3
1.0
      3.4608158000       0.0000000000       0.0000000000
     -0.0000000000       3.4608158000       0.0000000000
      0.0000000000       0.0000000000       3.4608158000
Li Ga
1 3
direct
   0.0000000000000000    0.0000000000000000    0.0000000000000000 Li
   0.5000000000000000    0.0000000000000000    0.5000000000000000 Ga
   0.0000000000000000    0.5000000000000000    0.5000000000000000 Ga
   0.5000000000000000    0.5000000000000000    0.0000000000000000 Ga
