Li2 Zn2
1.0
      2.9705677278       0.0000000000       1.7150573681
      0.9901889757       2.8006776483       1.7150573682
      0.0000000000       0.0000000000       3.4301155440
Li Zn
2 2
direct
   0.8750000000000000    0.8750000000000000    0.8750000000000000 Li
   0.1250000000000000    0.1250000000000000    0.1250000000000000 Li
   0.3750000000000000    0.3750000000000000    0.3750000000000000 Zn
   0.6250000000000000    0.6250000000000000    0.6250000000000000 Zn
