K2 C2
1.0
      3.1345952667       0.0000000000       0.9475353012
      1.4253627450       2.7917787397       0.9475353012
      0.0000000000       0.0000000000       5.6740771875
K C
2 2
direct
   0.7557220000000000    0.7557220000000000    0.7502540000000000 K
   0.2442780000000000    0.2442780000000000    0.2497460000000000 K
   0.0000000000000000    0.0000000000000000    0.0000000000000000 C
   0.5000000000000000    0.5000000000000000    0.5000000000000000 C
