K2 C2
1.0
      3.5525413023       0.0000000000       1.0738733413
      1.6154111110       3.1640159050       1.0738733413
      0.0000000000       0.0000000000       6.4306208125
K C
2 2
direct
   0.7557220000000000    0.7557220000000000    0.7502540000000000 K
   0.2442780000000000    0.2442780000000000    0.2497460000000000 K
   0.0000000000000000    0.0000000000000000    0.0000000000000000 C
   0.5000000000000000    0.5000000000000000    0.5000000000000000 C
