K2 C2
1.0
      3.7615143201       0.0000000000       1.1370423614
      1.7104352940       3.3501344876       1.1370423614
      0.0000000000       0.0000000000       6.8088926250
K C
2 2
direct
   0.7557220000000000    0.7557220000000000    0.7502540000000000 K
   0.2442780000000000    0.2442780000000000    0.2497460000000000 K
   0.0000000000000000    0.0000000000000000    0.0000000000000000 C
   0.5000000000000000    0.5000000000000000    0.5000000000000000 C
