K2 C2
1.0
      3.9704873379       0.0000000000       1.2002113815
      1.8054594770       3.5362530703       1.2002113815
      0.0000000000       0.0000000000       7.1871644375
K C
2 2
direct
   0.7557220000000000    0.7557220000000000    0.7502540000000000 K
   0.2442780000000000    0.2442780000000000    0.2497460000000000 K
   0.0000000000000000    0.0000000000000000    0.0000000000000000 C
   0.5000000000000000    0.5000000000000000    0.5000000000000000 C
