K2 C2
1.0
      3.3435682845       0.0000000000       1.0107043213
      1.5203869280       2.9778973223       1.0107043213
      0.0000000000       0.0000000000       6.0523490000
K C
2 2
direct
   0.7557220000000000    0.7557220000000000    0.7502540000000000 K
   0.2442780000000000    0.2442780000000000    0.2497460000000000 K
   0.0000000000000000    0.0000000000000000    0.0000000000000000 C
   0.5000000000000000    0.5000000000000000    0.5000000000000000 C
