Mn2 O4
1.0
      2.2899814400       0.0000000000       0.0000000000
     -2.2899814383       3.5698501330      -0.0000033133
      0.0000000000       0.0000000000       3.4644607760
Mn O
2 4
direct
   0.0000000000000000    0.0000000000000000    0.0000000000000000 Mn
   0.0000000000000000    0.5000000000000000    0.5000000000000000 Mn
   0.3229626700000000    0.8229626700000000    0.2139923600000000 O
   0.3229656700000000    0.3229656700000000    0.2860106400000000 O
   0.6770343300000000    0.6770343300000000    0.7139893600000000 O
   0.6770373300000000    0.1770373300000000    0.7860076400000000 O
