Mn2 O4
1.0
      2.5762291200       0.0000000000       0.0000000000
     -2.5762291181       4.0160813996      -0.0000037274
      0.0000000000       0.0000000000       3.8975183730
Mn O
2 4
direct
   0.0000000000000000    0.0000000000000000    0.0000000000000000 Mn
   0.0000000000000000    0.5000000000000000    0.5000000000000000 Mn
   0.3229626700000000    0.8229626700000000    0.2139923600000000 O
   0.3229656700000000    0.3229656700000000    0.2860106400000000 O
   0.6770343300000000    0.6770343300000000    0.7139893600000000 O
   0.6770373300000000    0.1770373300000000    0.7860076400000000 O
