Li2 Mg4
1.0
      6.6099818000       0.0000000000       0.0000000000
     -6.1339610563       2.4630024677       0.0000000000
      0.0000000000       0.0000000000       4.0220975760
Li Mg
2 4
direct
   0.6108356900000000    0.3891643100000000    0.2500000000000000 Li
   0.3891643100000000    0.6108356900000000    0.7500000000000000 Li
   0.2778369000000000    0.7221630999999999    0.2500000000000000 Mg
   0.9446998800000000    0.0553001200000000    0.2500000000000000 Mg
   0.7221630999999999    0.2778369000000000    0.7500000000000000 Mg
   0.0553001200000000    0.9446998800000000    0.7500000000000000 Mg
