Li4 Mg2
1.0
      4.7832262971       0.0000000000       1.3712056508
      4.0534658853       2.5394227940       1.3712056508
      0.0000000000       0.0000000000       6.1876981990
Li Mg
4 2
direct
   0.8069410299999999    0.8069410299999999    0.6364147700000000 Li
   0.1421265100000000    0.1421265100000000    0.9665017500000000 Li
   0.8578734900000000    0.8578734900000000    0.0334982500000000 Li
   0.1930589700000000    0.1930589700000000    0.3635852300000000 Li
   0.5248088100000000    0.5248088100000000    0.7031527500000000 Mg
   0.4751911900000000    0.4751911900000000    0.2968472500000000 Mg
