Li1 S1
1.0
      2.6147077637       0.0000000000       1.5096022313
      0.8715692546       2.4651701208       1.5096022313
      0.0000000000       0.0000000000       3.0192044625
Li S
1 1
direct
   0.5000000000000000    0.5000000000000000    0.5000000000000000 Li
   0.0000000000000000    0.0000000000000000    0.0000000000000000 S
