Li1 S1
1.0
      2.7685141028       0.0000000000       1.5984023625
      0.9228380343       2.6101801279       1.5984023625
      0.0000000000       0.0000000000       3.1968047250
Li S
1 1
direct
   0.5000000000000000    0.5000000000000000    0.5000000000000000 Li
   0.0000000000000000    0.0000000000000000    0.0000000000000000 S
