Li1 S1
1.0
      2.4609014247       0.0000000000       1.4208021000
      0.8203004749       2.3201601136       1.4208021000
      0.0000000000       0.0000000000       2.8416042000
Li S
1 1
direct
   0.5000000000000000    0.5000000000000000    0.5000000000000000 Li
   0.0000000000000000    0.0000000000000000    0.0000000000000000 S
