Cu1 Sn3
1.0
      3.7201731030       0.0000000000      -3.6748283809
     -0.6494128258       3.6630521287      -3.6748283809
      0.0000000000       0.0000000000       5.2291539990
Cu Sn
1 3
direct
   0.0000000000000000    0.0000000000000000    0.0000000000000000 Cu
   0.7500000000000000    0.2500000000000000    0.5000000000000000 Sn
   0.2500000000000000    0.7500000000000000    0.5000000000000000 Sn
   0.5000000000000000    0.5000000000000000    0.0000000000000000 Sn
