Cu1 Sn3
1.0
      3.1001442525       0.0000000000      -3.0623569841
     -0.5411773548       3.0525434406      -3.0623569841
      0.0000000000       0.0000000000       4.3576283325
Cu Sn
1 3
direct
   0.0000000000000000    0.0000000000000000    0.0000000000000000 Cu
   0.7500000000000000    0.2500000000000000    0.5000000000000000 Sn
   0.2500000000000000    0.7500000000000000    0.5000000000000000 Sn
   0.5000000000000000    0.5000000000000000    0.0000000000000000 Sn
