Cu1 Sn3
1.0
      3.9268493865       0.0000000000      -3.8789855132
     -0.6854913161       3.8665550247      -3.8789855132
      0.0000000000       0.0000000000       5.5196625545
Cu Sn
1 3
direct
   0.0000000000000000    0.0000000000000000    0.0000000000000000 Cu
   0.7500000000000000    0.2500000000000000    0.5000000000000000 Sn
   0.2500000000000000    0.7500000000000000    0.5000000000000000 Sn
   0.5000000000000000    0.5000000000000000    0.0000000000000000 Sn
