Cu1 Sn3
1.0
      3.3068205360       0.0000000000      -3.2665141164
     -0.5772558452       3.2560463366      -3.2665141164
      0.0000000000       0.0000000000       4.6481368880
Cu Sn
1 3
direct
   0.0000000000000000    0.0000000000000000    0.0000000000000000 Cu
   0.7500000000000000    0.2500000000000000    0.5000000000000000 Sn
   0.2500000000000000    0.7500000000000000    0.5000000000000000 Sn
   0.5000000000000000    0.5000000000000000    0.0000000000000000 Sn
