Cu1 Sn3
1.0
      3.5134968195       0.0000000000      -3.4706712487
     -0.6133343355       3.4595492327      -3.4706712487
      0.0000000000       0.0000000000       4.9386454435
Cu Sn
1 3
direct
   0.0000000000000000    0.0000000000000000    0.0000000000000000 Cu
   0.7500000000000000    0.2500000000000000    0.5000000000000000 Sn
   0.2500000000000000    0.7500000000000000    0.5000000000000000 Sn
   0.5000000000000000    0.5000000000000000    0.0000000000000000 Sn
