Mn2 S2
1.0
      2.8526814762       0.0000000000       1.6469959854
     -0.9508937881       5.3476565022      -1.6469951398
      0.0000000000       0.0000000000       3.2939927910
Mn S
2 2
direct
   0.0000000000000000    0.0000000000000000    0.0000000000000000 Mn
   0.5000000000000000    0.5000000000000000    0.5000000000000000 Mn
   0.7499995500000000    0.2499986400000000    0.7499995500000000 S
   0.2500004500000000    0.7500013600000000    0.2500004500000000 S
