Mn2 S2
1.0
      2.6941991720       0.0000000000       1.5554962084
     -0.8980663554       5.0505644743      -1.5554954098
      0.0000000000       0.0000000000       3.1109931915
Mn S
2 2
direct
   0.0000000000000000    0.0000000000000000    0.0000000000000000 Mn
   0.5000000000000000    0.5000000000000000    0.5000000000000000 Mn
   0.7499995500000000    0.2499986400000000    0.7499995500000000 S
   0.2500004500000000    0.7500013600000000    0.2500004500000000 S
