Mn2 S2
1.0
      2.5357168678       0.0000000000       1.4639964314
     -0.8452389227       4.7534724464      -1.4639956799
      0.0000000000       0.0000000000       2.9279935920
Mn S
2 2
direct
   0.0000000000000000    0.0000000000000000    0.0000000000000000 Mn
   0.5000000000000000    0.5000000000000000    0.5000000000000000 Mn
   0.7499995500000000    0.2499986400000000    0.7499995500000000 S
   0.2500004500000000    0.7500013600000000    0.2500004500000000 S
