Mn2 S2
1.0
      3.0111637805       0.0000000000       1.7384957623
     -1.0037212207       5.6447485301      -1.7384948698
      0.0000000000       0.0000000000       3.4769923905
Mn S
2 2
direct
   0.0000000000000000    0.0000000000000000    0.0000000000000000 Mn
   0.5000000000000000    0.5000000000000000    0.5000000000000000 Mn
   0.7499995500000000    0.2499986400000000    0.7499995500000000 S
   0.2500004500000000    0.7500013600000000    0.2500004500000000 S
