Mn2 S2
1.0
      2.3772345635       0.0000000000       1.3724966545
     -0.7924114901       4.4563804185      -1.3724959499
      0.0000000000       0.0000000000       2.7449939925
Mn S
2 2
direct
   0.0000000000000000    0.0000000000000000    0.0000000000000000 Mn
   0.5000000000000000    0.5000000000000000    0.5000000000000000 Mn
   0.7499995500000000    0.2499986400000000    0.7499995500000000 S
   0.2500004500000000    0.7500013600000000    0.2500004500000000 S
