K3 U1
1.0
      5.8209236000       0.0000000000       0.0000000000
     -0.0000000000       5.8209236000       0.0000000000
      0.0000000000       0.0000000000       5.8209236000
K U
3 1
direct
   0.5000000000000000    0.0000000000000000    0.5000000000000000 K
   0.0000000000000000    0.5000000000000000    0.5000000000000000 K
   0.5000000000000000    0.5000000000000000    0.0000000000000000 K
   0.0000000000000000    0.0000000000000000    0.0000000000000000 U
