Mn1 Zn3
1.0
      3.0471073680       0.0000000000       0.0000000000
     -0.0000000000       3.0471073680       0.0000000000
      0.0000000000       0.0000000000       3.0471082160
Mn Zn
1 3
direct
   0.0000000000000000    0.0000000000000000    0.0000000000000000 Mn
   0.0000000000000000    0.5000000000000000    0.5000000000000000 Zn
   0.5000000000000000    0.5000000000000000    0.0000000000000000 Zn
   0.5000000000000000    0.0000000000000000    0.5000000000000000 Zn
