Li5 Tl2
1.0
      3.5502733661       0.0000000000       4.6164715266
      1.5698620163       3.1843330852       4.6164713660
      0.0000000000       0.0000000000       5.8237658720
Li Tl
5 2
direct
   0.5000000000000000    0.5000000000000000    0.5000000000000000 Li
   0.6458297400000000    0.6458297400000000    0.6458297400000000 Li
   0.2130020700000000    0.2130020700000000    0.2130020700000000 Li
   0.7869979300000000    0.7869979300000000    0.7869979300000000 Li
   0.3541702600000000    0.3541702600000000    0.3541702600000000 Li
   0.9254192100000000    0.9254192100000000    0.9254192100000000 Tl
   0.0745807900000000    0.0745807900000000    0.0745807900000000 Tl
