Li5 Tl2
1.0
      3.3283812807       0.0000000000       4.3279420562
      1.4717456403       2.9853122674       4.3279419056
      0.0000000000       0.0000000000       5.4597805050
Li Tl
5 2
direct
   0.5000000000000000    0.5000000000000000    0.5000000000000000 Li
   0.6458297400000000    0.6458297400000000    0.6458297400000000 Li
   0.2130020700000000    0.2130020700000000    0.2130020700000000 Li
   0.7869979300000000    0.7869979300000000    0.7869979300000000 Li
   0.3541702600000000    0.3541702600000000    0.3541702600000000 Li
   0.9254192100000000    0.9254192100000000    0.9254192100000000 Tl
   0.0745807900000000    0.0745807900000000    0.0745807900000000 Tl
