Li3 Al2
1.0
      3.4310013725       0.0000000000       2.9943535240
      1.3610624990       3.1494890245       2.9943536461
      0.0000000000       0.0000000000       4.5538912265
Li Al
3 2
direct
   0.5977897500000000    0.5977897500000000    0.5977897500000000 Li
   0.4022102500000000    0.4022102500000000    0.4022102500000000 Li
   0.0000000000000000    0.0000000000000000    0.0000000000000000 Li
   0.1963518300000000    0.1963518300000000    0.1963518300000000 Al
   0.8036481700000000    0.8036481700000000    0.8036481700000000 Al
