Li3 Al2
1.0
      3.6328249827       0.0000000000       3.1704919666
      1.4411249990       3.3347530847       3.1704920959
      0.0000000000       0.0000000000       4.8217671810
Li Al
3 2
direct
   0.5977897500000000    0.5977897500000000    0.5977897500000000 Li
   0.4022102500000000    0.4022102500000000    0.4022102500000000 Li
   0.0000000000000000    0.0000000000000000    0.0000000000000000 Li
   0.1963518300000000    0.1963518300000000    0.1963518300000000 Al
   0.8036481700000000    0.8036481700000000    0.8036481700000000 Al
