Li3 Al2
1.0
      3.0273541522       0.0000000000       2.6420766388
      1.2009374991       2.7789609039       2.6420767466
      0.0000000000       0.0000000000       4.0181393175
Li Al
3 2
direct
   0.5977897500000000    0.5977897500000000    0.5977897500000000 Li
   0.4022102500000000    0.4022102500000000    0.4022102500000000 Li
   0.0000000000000000    0.0000000000000000    0.0000000000000000 Li
   0.1963518300000000    0.1963518300000000    0.1963518300000000 Al
   0.8036481700000000    0.8036481700000000    0.8036481700000000 Al
