Er4 Mn8
1.0
      4.9134094290       0.0000000000       0.0000096003
     -2.4566870210       4.2551570050      -0.0000137148
      0.0000000000       0.0000000000       7.9831181700
Er Mn
4 8
direct
   0.3333333333333333    0.6666666666666666    0.4319877400000000 Er
   0.6666666666666666    0.3333333333333333    0.9319961400000000 Er
   0.6666666666666666    0.3333333333333333    0.5680122600000000 Er
   0.3333333333333333    0.6666666666666666    0.0680038600000000 Er
   0.1683231200000000    0.3366462300000000    0.7500121199999999 Mn
   0.8316758800000000    0.1683241200000000    0.2499858800000000 Mn
   0.3366462300000000    0.1683231200000000    0.2499888800000000 Mn
   0.6633537700000000    0.8316768800000000    0.7500111200000000 Mn
   0.0000000000000000    0.0000000000000000    0.0000000000000000 Mn
   0.0000000000000000    0.0000000000000000    0.5000000000000000 Mn
   0.8316768800000000    0.6633537700000000    0.2499878800000000 Mn
   0.1683241200000000    0.8316758800000000    0.7500141200000000 Mn
