Cu2 Sn2
1.0
      3.7237747590       0.0000000000       0.0000000000
     -1.8618878318       3.2248841095       0.0000000000
      0.0000000000       0.0000000000       4.5204651450
Cu Sn
2 2
direct
   0.0000000000000000    0.0000000000000000    0.0000000000000000 Cu
   0.0000000000000000    0.0000000000000000    0.5000000000000000 Cu
   0.3333333333333333    0.6666666666666666    0.2500000000000000 Sn
   0.6666666666666666    0.3333333333333333    0.7500000000000000 Sn
