Cu2 Sn2
1.0
      3.1031456325       0.0000000000       0.0000000000
     -1.5515731932       2.6874034246       0.0000000000
      0.0000000000       0.0000000000       3.7670542875
Cu Sn
2 2
direct
   0.0000000000000000    0.0000000000000000    0.0000000000000000 Cu
   0.0000000000000000    0.0000000000000000    0.5000000000000000 Cu
   0.3333333333333333    0.6666666666666666    0.2500000000000000 Sn
   0.6666666666666666    0.3333333333333333    0.7500000000000000 Sn
