Cu2 Sn2
1.0
      3.5168983835       0.0000000000       0.0000000000
     -1.7584496189       3.0457238812       0.0000000000
      0.0000000000       0.0000000000       4.2693281925
Cu Sn
2 2
direct
   0.0000000000000000    0.0000000000000000    0.0000000000000000 Cu
   0.0000000000000000    0.0000000000000000    0.5000000000000000 Cu
   0.3333333333333333    0.6666666666666666    0.2500000000000000 Sn
   0.6666666666666666    0.3333333333333333    0.7500000000000000 Sn
