Cu2 Sn2
1.0
      3.9306511345       0.0000000000       0.0000000000
     -1.9653260447       3.4040443378       0.0000000000
      0.0000000000       0.0000000000       4.7716020975
Cu Sn
2 2
direct
   0.0000000000000000    0.0000000000000000    0.0000000000000000 Cu
   0.0000000000000000    0.0000000000000000    0.5000000000000000 Cu
   0.3333333333333333    0.6666666666666666    0.2500000000000000 Sn
   0.6666666666666666    0.3333333333333333    0.7500000000000000 Sn
