K1 Sm3
1.0
      3.6324222747       0.0000000000      -3.3819887225
     -0.6882200305       3.5666293292      -3.3819887225
      0.0000000000       0.0000000000       4.9630977525
K Sm
1 3
direct
   0.0000000000000000    0.0000000000000000    0.0000000000000000 K
   0.7500000000000000    0.2500000000000000    0.5000000000000000 Sm
   0.2500000000000000    0.7500000000000000    0.5000000000000000 Sm
   0.5000000000000000    0.5000000000000000    0.0000000000000000 Sm
