K1 Sm3
1.0
      4.6010682147       0.0000000000      -4.2838523818
     -0.8717453720       4.5177304836      -4.2838523818
      0.0000000000       0.0000000000       6.2865904865
K Sm
1 3
direct
   0.0000000000000000    0.0000000000000000    0.0000000000000000 K
   0.7500000000000000    0.2500000000000000    0.5000000000000000 Sm
   0.2500000000000000    0.7500000000000000    0.5000000000000000 Sm
   0.5000000000000000    0.5000000000000000    0.0000000000000000 Sm
