K1 Sm3
1.0
      3.8745837597       0.0000000000      -3.6074546373
     -0.7341013659       3.8044046178      -3.6074546373
      0.0000000000       0.0000000000       5.2939709360
K Sm
1 3
direct
   0.0000000000000000    0.0000000000000000    0.0000000000000000 K
   0.7500000000000000    0.2500000000000000    0.5000000000000000 Sm
   0.2500000000000000    0.7500000000000000    0.5000000000000000 Sm
   0.5000000000000000    0.5000000000000000    0.0000000000000000 Sm
