K1 Sm3
1.0
      4.1167452447       0.0000000000      -3.8329205521
     -0.7799827012       4.0421799064      -3.8329205521
      0.0000000000       0.0000000000       5.6248441195
K Sm
1 3
direct
   0.0000000000000000    0.0000000000000000    0.0000000000000000 K
   0.7500000000000000    0.2500000000000000    0.5000000000000000 Sm
   0.2500000000000000    0.7500000000000000    0.5000000000000000 Sm
   0.5000000000000000    0.5000000000000000    0.0000000000000000 Sm
