K1 Sm3
1.0
      4.3589067297       0.0000000000      -4.0583864670
     -0.8258640366       4.2799551950      -4.0583864670
      0.0000000000       0.0000000000       5.9557173030
K Sm
1 3
direct
   0.0000000000000000    0.0000000000000000    0.0000000000000000 K
   0.7500000000000000    0.2500000000000000    0.5000000000000000 Sm
   0.2500000000000000    0.7500000000000000    0.5000000000000000 Sm
   0.5000000000000000    0.5000000000000000    0.0000000000000000 Sm
