K1 La3
1.0
      4.7192485212       0.0000000000      -4.2929053071
     -0.9227394996       4.6281592907      -4.2929053071
      0.0000000000       0.0000000000       6.3796820125
K La
1 3
direct
   0.0000000000000000    0.0000000000000000    0.0000000000000000 K
   0.7500000000000000    0.2500000000000000    0.5000000000000000 La
   0.2500000000000000    0.7500000000000000    0.5000000000000000 La
   0.5000000000000000    0.5000000000000000    0.0000000000000000 La
