K1 La3
1.0
      3.9741040178       0.0000000000      -3.6150781534
     -0.7770437891       3.8973972975      -3.6150781534
      0.0000000000       0.0000000000       5.3723638000
K La
1 3
direct
   0.0000000000000000    0.0000000000000000    0.0000000000000000 K
   0.7500000000000000    0.2500000000000000    0.5000000000000000 La
   0.2500000000000000    0.7500000000000000    0.5000000000000000 La
   0.5000000000000000    0.5000000000000000    0.0000000000000000 La
