K1 La3
1.0
      4.2224855190       0.0000000000      -3.8410205380
     -0.8256090260       4.1409846286      -3.8410205380
      0.0000000000       0.0000000000       5.7081365375
K La
1 3
direct
   0.0000000000000000    0.0000000000000000    0.0000000000000000 K
   0.7500000000000000    0.2500000000000000    0.5000000000000000 La
   0.2500000000000000    0.7500000000000000    0.5000000000000000 La
   0.5000000000000000    0.5000000000000000    0.0000000000000000 La
