K1 La3
1.0
      3.7257225167       0.0000000000      -3.3891357688
     -0.7284785523       3.6538099664      -3.3891357688
      0.0000000000       0.0000000000       5.0365910625
K La
1 3
direct
   0.0000000000000000    0.0000000000000000    0.0000000000000000 K
   0.7500000000000000    0.2500000000000000    0.5000000000000000 La
   0.2500000000000000    0.7500000000000000    0.5000000000000000 La
   0.5000000000000000    0.5000000000000000    0.0000000000000000 La
