Mn1 Br2
1.0
      2.9775343697       0.0000000000       4.7161704798
      1.3641990506       2.6466345423       4.7161702402
      0.0000000000       0.0000000000       5.5774519760
Mn Br
1 2
direct
   0.0000000000000000    0.0000000000000000    0.0000000000000000 Mn
   0.7426090400000001    0.7426090400000001    0.7426090400000001 Br
   0.2573909600000000    0.2573909600000000    0.2573909600000000 Br
