Mn1 Br2
1.0
      3.1636302678       0.0000000000       5.0109311348
      1.4494614913       2.8120492012       5.0109308803
      0.0000000000       0.0000000000       5.9260427245
Mn Br
1 2
direct
   0.0000000000000000    0.0000000000000000    0.0000000000000000 Mn
   0.7426090400000001    0.7426090400000001    0.7426090400000001 Br
   0.2573909600000000    0.2573909600000000    0.2573909600000000 Br
