Mn1 Br2
1.0
      3.5358220641       0.0000000000       5.6004524447
      1.6199863726       3.1428785189       5.6004521603
      0.0000000000       0.0000000000       6.6232242215
Mn Br
1 2
direct
   0.0000000000000000    0.0000000000000000    0.0000000000000000 Mn
   0.7426090400000001    0.7426090400000001    0.7426090400000001 Br
   0.2573909600000000    0.2573909600000000    0.2573909600000000 Br
