Mn1 Br2
1.0
      3.3497261659       0.0000000000       5.3056917898
      1.5347239320       2.9774638601       5.3056915203
      0.0000000000       0.0000000000       6.2746334730
Mn Br
1 2
direct
   0.0000000000000000    0.0000000000000000    0.0000000000000000 Mn
   0.7426090400000001    0.7426090400000001    0.7426090400000001 Br
   0.2573909600000000    0.2573909600000000    0.2573909600000000 Br
