Mn1 Br2
1.0
      2.7914384716       0.0000000000       4.4214098248
      1.2789366100       2.4812198834       4.4214096002
      0.0000000000       0.0000000000       5.2288612275
Mn Br
1 2
direct
   0.0000000000000000    0.0000000000000000    0.0000000000000000 Mn
   0.7426090400000001    0.7426090400000001    0.7426090400000001 Br
   0.2573909600000000    0.2573909600000000    0.2573909600000000 Br
