Cu2 S2
1.0
      2.6745616960       0.0000000000       0.0000000000
     -1.3372809438       2.3162383174       0.0000000000
      0.0000000000       0.0000000000       4.9438560000
Cu S
2 2
direct
   0.3333333333333333    0.6666666666666666    0.7500000000000000 Cu
   0.6666666666666666    0.3333333333333333    0.2500000000000000 Cu
   0.0000000000000000    0.0000000000000000    0.5000000000000000 S
   0.0000000000000000    0.0000000000000000    0.0000000000000000 S
