Cu2 S2
1.0
      2.8417218020       0.0000000000       0.0000000000
     -1.4208610028       2.4610032122       0.0000000000
      0.0000000000       0.0000000000       5.2528470000
Cu S
2 2
direct
   0.3333333333333333    0.6666666666666666    0.7500000000000000 Cu
   0.6666666666666666    0.3333333333333333    0.2500000000000000 Cu
   0.0000000000000000    0.0000000000000000    0.5000000000000000 S
   0.0000000000000000    0.0000000000000000    0.0000000000000000 S
