Cu2 S2
1.0
      3.0088819080       0.0000000000       0.0000000000
     -1.5044410618       2.6057681071       0.0000000000
      0.0000000000       0.0000000000       5.5618380000
Cu S
2 2
direct
   0.3333333333333333    0.6666666666666666    0.7500000000000000 Cu
   0.6666666666666666    0.3333333333333333    0.2500000000000000 Cu
   0.0000000000000000    0.0000000000000000    0.5000000000000000 S
   0.0000000000000000    0.0000000000000000    0.0000000000000000 S
