Cu2 S2
1.0
      2.5074015900       0.0000000000       0.0000000000
     -1.2537008848       2.1714734226       0.0000000000
      0.0000000000       0.0000000000       4.6348650000
Cu S
2 2
direct
   0.3333333333333333    0.6666666666666666    0.7500000000000000 Cu
   0.6666666666666666    0.3333333333333333    0.2500000000000000 Cu
   0.0000000000000000    0.0000000000000000    0.5000000000000000 S
   0.0000000000000000    0.0000000000000000    0.0000000000000000 S
