K3 W1
1.0
      4.4201532279       0.0000000000       2.5519766560
      1.4733844093       4.1673604285       2.5519766560
      0.0000000000       0.0000000000       5.1039533120
K W
3 1
direct
   0.2500000000000000    0.2500000000000000    0.2500000000000000 K
   0.7500000000000000    0.7500000000000000    0.7500000000000000 K
   0.5000000000000000    0.5000000000000000    0.5000000000000000 K
   0.0000000000000000    0.0000000000000000    0.0000000000000000 W
