K3 W1
1.0
      5.2489319582       0.0000000000       3.0304722790
      1.7496439861       4.9487405088       3.0304722790
      0.0000000000       0.0000000000       6.0609445580
K W
3 1
direct
   0.2500000000000000    0.2500000000000000    0.2500000000000000 K
   0.7500000000000000    0.7500000000000000    0.7500000000000000 K
   0.5000000000000000    0.5000000000000000    0.5000000000000000 K
   0.0000000000000000    0.0000000000000000    0.0000000000000000 W
