K3 W1
1.0
      4.1438936512       0.0000000000       2.3924781150
      1.3812978837       3.9069004017       2.3924781150
      0.0000000000       0.0000000000       4.7849562300
K W
3 1
direct
   0.2500000000000000    0.2500000000000000    0.2500000000000000 K
   0.7500000000000000    0.7500000000000000    0.7500000000000000 K
   0.5000000000000000    0.5000000000000000    0.5000000000000000 K
   0.0000000000000000    0.0000000000000000    0.0000000000000000 W
