K3 W1
1.0
      4.9726723814       0.0000000000       2.8709737380
      1.6575574605       4.6882804820       2.8709737380
      0.0000000000       0.0000000000       5.7419474760
K W
3 1
direct
   0.2500000000000000    0.2500000000000000    0.2500000000000000 K
   0.7500000000000000    0.7500000000000000    0.7500000000000000 K
   0.5000000000000000    0.5000000000000000    0.5000000000000000 K
   0.0000000000000000    0.0000000000000000    0.0000000000000000 W
