K3 W1
1.0
      4.6964128047       0.0000000000       2.7114751970
      1.5654709349       4.4278204552       2.7114751970
      0.0000000000       0.0000000000       5.4229503940
K W
3 1
direct
   0.2500000000000000    0.2500000000000000    0.2500000000000000 K
   0.7500000000000000    0.7500000000000000    0.7500000000000000 K
   0.5000000000000000    0.5000000000000000    0.5000000000000000 K
   0.0000000000000000    0.0000000000000000    0.0000000000000000 W
