Li3 Ga1
1.0
      3.3395077268       0.0000000000      -2.5893302054
     -0.8018732418       3.2418067743      -2.5893302054
      0.0000000000       0.0000000000       4.2257475990
Li Ga
3 1
direct
   0.7499990000000000    0.2499990000000000    0.5000000000000000 Li
   0.2499990000000000    0.7499990000000000    0.5000000000000000 Li
   0.5000000000000000    0.5000000000000000    0.0000000000000000 Li
   0.0000000000000000    0.0000000000000000    0.0000000000000000 Ga
