Li3 Ga1
1.0
      3.1539795198       0.0000000000      -2.4454785274
     -0.7573247284       3.0617063979      -2.4454785274
      0.0000000000       0.0000000000       3.9909838435
Li Ga
3 1
direct
   0.7499990000000000    0.2499990000000000    0.5000000000000000 Li
   0.2499990000000000    0.7499990000000000    0.5000000000000000 Li
   0.5000000000000000    0.5000000000000000    0.0000000000000000 Li
   0.0000000000000000    0.0000000000000000    0.0000000000000000 Ga
