Li3 Ga1
1.0
      2.9684513128       0.0000000000      -2.3016268493
     -0.7127762150       2.8816060216      -2.3016268493
      0.0000000000       0.0000000000       3.7562200880
Li Ga
3 1
direct
   0.7499990000000000    0.2499990000000000    0.5000000000000000 Li
   0.2499990000000000    0.7499990000000000    0.5000000000000000 Li
   0.5000000000000000    0.5000000000000000    0.0000000000000000 Li
   0.0000000000000000    0.0000000000000000    0.0000000000000000 Ga
