Li1 Rh3
1.0
      2.7645107641       0.0000000000      -2.5212352745
     -0.5386674419       2.7115230318      -2.5212352745
      0.0000000000       0.0000000000       3.7415434080
Li Rh
1 3
direct
   0.0000000000000000    0.0000000000000000    0.0000000000000000 Li
   0.7500000000000000    0.2500000000000000    0.5000000000000000 Rh
   0.2500000000000000    0.7500000000000000    0.5000000000000000 Rh
   0.5000000000000000    0.5000000000000000    0.0000000000000000 Rh
