Li1 Rh3
1.0
      2.9372926868       0.0000000000      -2.6788124791
     -0.5723341570       2.8809932213      -2.6788124791
      0.0000000000       0.0000000000       3.9753898710
Li Rh
1 3
direct
   0.0000000000000000    0.0000000000000000    0.0000000000000000 Li
   0.7500000000000000    0.2500000000000000    0.5000000000000000 Rh
   0.2500000000000000    0.7500000000000000    0.5000000000000000 Rh
   0.5000000000000000    0.5000000000000000    0.0000000000000000 Rh
