Li1 Rh3
1.0
      3.2828565323       0.0000000000      -2.9939668884
     -0.6396675872       3.2199336002      -2.9939668884
      0.0000000000       0.0000000000       4.4430827970
Li Rh
1 3
direct
   0.0000000000000000    0.0000000000000000    0.0000000000000000 Li
   0.7500000000000000    0.2500000000000000    0.5000000000000000 Rh
   0.2500000000000000    0.7500000000000000    0.5000000000000000 Rh
   0.5000000000000000    0.5000000000000000    0.0000000000000000 Rh
