Li3 Zr1
1.0
      3.4831376143       0.0000000000       2.0109904393
      1.1610458714       3.2839336359       2.0109904393
      0.0000000000       0.0000000000       4.0219808785
Li Zr
3 1
direct
   0.2500000000000000    0.2500000000000000    0.2500000000000000 Li
   0.7500000000000000    0.7500000000000000    0.7500000000000000 Li
   0.5000000000000000    0.5000000000000000    0.5000000000000000 Li
   0.0000000000000000    0.0000000000000000    0.0000000000000000 Zr
