Li3 Zr1
1.0
      3.8929185101       0.0000000000       2.2475775498
      1.2976395034       3.6702787695       2.2475775498
      0.0000000000       0.0000000000       4.4951550995
Li Zr
3 1
direct
   0.2500000000000000    0.2500000000000000    0.2500000000000000 Li
   0.7500000000000000    0.7500000000000000    0.7500000000000000 Li
   0.5000000000000000    0.5000000000000000    0.5000000000000000 Li
   0.0000000000000000    0.0000000000000000    0.0000000000000000 Zr
