Li3 Zr1
1.0
      3.2782471664       0.0000000000       1.8926968840
      1.0927490555       3.0907610690       1.8926968840
      0.0000000000       0.0000000000       3.7853937680
Li Zr
3 1
direct
   0.2500000000000000    0.2500000000000000    0.2500000000000000 Li
   0.7500000000000000    0.7500000000000000    0.7500000000000000 Li
   0.5000000000000000    0.5000000000000000    0.5000000000000000 Li
   0.0000000000000000    0.0000000000000000    0.0000000000000000 Zr
