K2 C2
1.0
      3.5556125961       0.0000000000       1.0574385666
      1.6173165907       3.1664914305       1.0574385666
      0.0000000000       0.0000000000       6.4119120660
K C
2 2
direct
   0.2415090000000000    0.7584910000000000    0.2500000000000000 K
   0.7584910000000000    0.2415090000000000    0.7500000000000000 K
   0.5000000000000000    0.0000000000000000    0.5000000000000000 C
   0.0000000000000000    0.5000000000000000    0.0000000000000000 C
