K2 C2
1.0
      3.7647662783       0.0000000000       1.1196408352
      1.7124528607       3.3527556323       1.1196408352
      0.0000000000       0.0000000000       6.7890833640
K C
2 2
direct
   0.2415090000000000    0.7584910000000000    0.2500000000000000 K
   0.7584910000000000    0.2415090000000000    0.7500000000000000 K
   0.5000000000000000    0.0000000000000000    0.5000000000000000 C
   0.0000000000000000    0.5000000000000000    0.0000000000000000 C
