K2 C2
1.0
      3.3464589140       0.0000000000       0.9952362979
      1.5221803206       2.9802272287       0.9952362979
      0.0000000000       0.0000000000       6.0347407680
K C
2 2
direct
   0.2415090000000000    0.7584910000000000    0.2500000000000000 K
   0.7584910000000000    0.2415090000000000    0.7500000000000000 K
   0.5000000000000000    0.0000000000000000    0.5000000000000000 C
   0.0000000000000000    0.5000000000000000    0.0000000000000000 C
