K2 C2
1.0
      3.9739199604       0.0000000000       1.1818431038
      1.8075891307       3.5390198341       1.1818431038
      0.0000000000       0.0000000000       7.1662546620
K C
2 2
direct
   0.2415090000000000    0.7584910000000000    0.2500000000000000 K
   0.7584910000000000    0.2415090000000000    0.7500000000000000 K
   0.5000000000000000    0.0000000000000000    0.5000000000000000 C
   0.0000000000000000    0.5000000000000000    0.0000000000000000 C
