Cu2 Ag6
1.0
      4.3095131400       0.0000000000       0.0000000000
     -2.1547562072       3.7321480667       0.0000000000
      0.0000000000       0.0000000000       3.4798672500
Cu Ag
2 6
direct
   0.3333333333333333    0.6666666666666666    0.7500000000000000 Cu
   0.6666666666666666    0.3333333333333333    0.2500000000000000 Cu
   0.1693970000000000    0.3387940000000000    0.2500000000000000 Ag
   0.6612060000000000    0.8306030000000000    0.2500000000000000 Ag
   0.1693970000000000    0.8306030000000000    0.2500000000000000 Ag
   0.8306030000000000    0.6612060000000000    0.7500000000000000 Ag
   0.3387940000000000    0.1693970000000000    0.7500000000000000 Ag
   0.8306030000000000    0.1693970000000000    0.7500000000000000 Ag
