Cu2 Ag6
1.0
      4.8841148920       0.0000000000       0.0000000000
     -2.4420570348       4.2297678089       0.0000000000
      0.0000000000       0.0000000000       3.9438495500
Cu Ag
2 6
direct
   0.3333333333333333    0.6666666666666666    0.7500000000000000 Cu
   0.6666666666666666    0.3333333333333333    0.2500000000000000 Cu
   0.1693970000000000    0.3387940000000000    0.2500000000000000 Ag
   0.6612060000000000    0.8306030000000000    0.2500000000000000 Ag
   0.1693970000000000    0.8306030000000000    0.2500000000000000 Ag
   0.8306030000000000    0.6612060000000000    0.7500000000000000 Ag
   0.3387940000000000    0.1693970000000000    0.7500000000000000 Ag
   0.8306030000000000    0.1693970000000000    0.7500000000000000 Ag
