Li2 B2
1.0
      3.7310765696       0.0000000000      -0.7649326222
     -0.7337125735       2.3460142285      -2.9092846860
      0.0000000000       0.0000000000       3.8086814365
Li B
2 2
direct
   0.5000000000000000    0.0000000000000000    0.5000000000000000 Li
   0.0000000000000000    0.5000000000000000    0.5000000000000000 Li
   0.9729030000000000    0.7500000000000000    0.2229030000000000 B
   0.0270970000000000    0.2500000000000000    0.7770970000000000 B
