Li1 Tb3
1.0
      3.7946573559       0.0000000000      -3.3451341918
     -0.7737024485       3.7149440063      -3.3451341918
      0.0000000000       0.0000000000       5.0585914255
Li Tb
1 3
direct
   0.0000000000000000    0.0000000000000000    0.0000000000000000 Li
   0.7500000000000000    0.2500000000000000    0.5000000000000000 Tb
   0.2500000000000000    0.7500000000000000    0.5000000000000000 Tb
   0.5000000000000000    0.5000000000000000    0.0000000000000000 Tb
