Li1 Tb3
1.0
      4.2410876331       0.0000000000      -3.7386793909
     -0.8647262660       4.1519962423      -3.7386793909
      0.0000000000       0.0000000000       5.6537198285
Li Tb
1 3
direct
   0.0000000000000000    0.0000000000000000    0.0000000000000000 Li
   0.7500000000000000    0.2500000000000000    0.5000000000000000 Tb
   0.2500000000000000    0.7500000000000000    0.5000000000000000 Tb
   0.5000000000000000    0.5000000000000000    0.0000000000000000 Tb
