Li1 Tb3
1.0
      3.5714422173       0.0000000000      -3.1483615923
     -0.7281905398       3.4964178883      -3.1483615923
      0.0000000000       0.0000000000       4.7610272240
Li Tb
1 3
direct
   0.0000000000000000    0.0000000000000000    0.0000000000000000 Li
   0.7500000000000000    0.2500000000000000    0.5000000000000000 Tb
   0.2500000000000000    0.7500000000000000    0.5000000000000000 Tb
   0.5000000000000000    0.5000000000000000    0.0000000000000000 Tb
