Li2 Mg4
1.0
      4.8141622513       0.0000000000       1.5956352896
      3.8228338868       2.9261065011       1.5956352896
      0.0000000000       0.0000000000       6.4271139750
Li Mg
2 4
direct
   0.1701764200000000    0.1701764200000000    0.4328577200000000 Li
   0.8298235800000000    0.8298235800000000    0.5671422800000000 Li
   0.4882065400000000    0.4882065400000000    0.7362192300000000 Mg
   0.1691111400000000    0.1691111400000000    0.8975605000000000 Mg
   0.8308888600000000    0.8308888600000000    0.1024395000000000 Mg
   0.5117934600000000    0.5117934600000000    0.2637807700000000 Mg
