Li2 Mg4
1.0
      5.0816157097       0.0000000000       1.6842816946
      4.0352135471       3.0886679734       1.6842816946
      0.0000000000       0.0000000000       6.7841758625
Li Mg
2 4
direct
   0.1701764200000000    0.1701764200000000    0.4328577200000000 Li
   0.8298235800000000    0.8298235800000000    0.5671422800000000 Li
   0.4882065400000000    0.4882065400000000    0.7362192300000000 Mg
   0.1691111400000000    0.1691111400000000    0.8975605000000000 Mg
   0.8308888600000000    0.8308888600000000    0.1024395000000000 Mg
   0.5117934600000000    0.5117934600000000    0.2637807700000000 Mg
