K3 Y1
1.0
      4.9120408034       0.0000000000      -4.8830105523
     -0.8498569090       4.8379632170      -4.8830105523
      0.0000000000       0.0000000000       6.9261776550
K Y
3 1
direct
   0.7500000000000000    0.2500000000000000    0.5000000000000000 K
   0.2500000000000000    0.7500000000000000    0.5000000000000000 K
   0.5000000000000000    0.5000000000000000    0.0000000000000000 K
   0.0000000000000000    0.0000000000000000    0.0000000000000000 Y
