K3 Y1
1.0
      5.1849319592       0.0000000000      -5.1542889163
     -0.8970711817       5.1067389512      -5.1542889163
      0.0000000000       0.0000000000       7.3109653025
K Y
3 1
direct
   0.7500000000000000    0.2500000000000000    0.5000000000000000 K
   0.2500000000000000    0.7500000000000000    0.5000000000000000 K
   0.5000000000000000    0.5000000000000000    0.0000000000000000 K
   0.0000000000000000    0.0000000000000000    0.0000000000000000 Y
