K3 Y1
1.0
      4.0933673362       0.0000000000      -4.0691754603
     -0.7082140908       4.0316360141      -4.0691754603
      0.0000000000       0.0000000000       5.7718147125
K Y
3 1
direct
   0.7500000000000000    0.2500000000000000    0.5000000000000000 K
   0.2500000000000000    0.7500000000000000    0.5000000000000000 K
   0.5000000000000000    0.5000000000000000    0.0000000000000000 K
   0.0000000000000000    0.0000000000000000    0.0000000000000000 Y
