K3 Y1
1.0
      4.6391496477       0.0000000000      -4.6117321883
     -0.8026426363       4.5691874827      -4.6117321883
      0.0000000000       0.0000000000       6.5413900075
K Y
3 1
direct
   0.7500000000000000    0.2500000000000000    0.5000000000000000 K
   0.2500000000000000    0.7500000000000000    0.5000000000000000 K
   0.5000000000000000    0.5000000000000000    0.0000000000000000 K
   0.0000000000000000    0.0000000000000000    0.0000000000000000 Y
