K3 Y1
1.0
      4.3662584919       0.0000000000      -4.3404538243
     -0.7554283636       4.3004117484      -4.3404538243
      0.0000000000       0.0000000000       6.1566023600
K Y
3 1
direct
   0.7500000000000000    0.2500000000000000    0.5000000000000000 K
   0.2500000000000000    0.7500000000000000    0.5000000000000000 K
   0.5000000000000000    0.5000000000000000    0.0000000000000000 K
   0.0000000000000000    0.0000000000000000    0.0000000000000000 Y
