Li6 Zn2
1.0
      4.2723435225       0.0000000000       0.0000000000
     -2.1361804416       3.6999530126       0.0000000000
      0.0000000000       0.0000000000       3.4591658925
Li Zn
6 2
direct
   0.1721467400000000    0.3442944800000000    0.2500000000000000 Li
   0.6557055200000000    0.8278532600000000    0.2500000000000000 Li
   0.1721467400000000    0.8278532600000000    0.2500000000000000 Li
   0.8278532600000000    0.6557055200000000    0.7500000000000000 Li
   0.3442944800000000    0.1721467400000000    0.7500000000000000 Li
   0.8278532600000000    0.1721467400000000    0.7500000000000000 Li
   0.3333333333333333    0.6666666666666666    0.7500000000000000 Zn
   0.6666666666666666    0.3333333333333333    0.2500000000000000 Zn
