Li14 Sn4
1.0
      3.5254659975       0.0000000000       0.0000000000
     -0.0000000000       5.9691456985      -2.1135476990
      0.0000000000       0.0000000000       6.3322810425
Li Sn
14 4
direct
   0.0000000000000000    0.0000000000000000    0.0000000000000000 Li
   0.5000000000000000    0.5000000000000000    0.5000000000000000 Li
   0.0000000000000000    0.3443879200000000    0.3443879200000000 Li
   0.0000000000000000    0.6556120800000000    0.6556120800000000 Li
   0.5000000000000000    0.1733528200000000    0.8266471800000000 Li
   0.5000000000000000    0.8266471800000000    0.1733528200000000 Li
   0.0000000000000000    0.3448851300000000    0.0301008000000000 Li
   0.0000000000000000    0.6551148700000000    0.9698992000000000 Li
   0.0000000000000000    0.0301008000000000    0.3448851300000000 Li
   0.0000000000000000    0.9698992000000000    0.6551148700000000 Li
   0.5000000000000000    0.5035975200000000    0.1841430800000000 Li
   0.5000000000000000    0.4964024800000000    0.8158569200000000 Li
   0.5000000000000000    0.1841430800000000    0.5035975200000000 Li
   0.5000000000000000    0.8158569200000000    0.4964024800000000 Li
   0.5000000000000000    0.1623322500000000    0.1623322500000000 Sn
   0.5000000000000000    0.8376677500000000    0.8376677500000000 Sn
   0.0000000000000000    0.3179213900000000    0.6820776100000000 Sn
   0.0000000000000000    0.6820776100000000    0.3179213900000000 Sn
