Li1 Pu3
1.0
      3.8622647304       0.0000000000       2.2298795818
      1.2874215768       3.6413781088       2.2298795818
      0.0000000000       0.0000000000       4.4597591635
Li Pu
1 3
direct
   0.7499990000000000    0.7499990000000000    0.7499990000000000 Li
   0.0000000000000000    0.0000000000000000    0.0000000000000000 Pu
   0.4999990000000000    0.4999990000000000    0.4999990000000000 Pu
   0.2500000000000000    0.2500000000000000    0.2500000000000000 Pu
