Hf3 Mg1
1.0
      3.2320437831       0.0000000000      -2.9414711731
     -0.6315421221       3.1697415610      -2.9414711731
      0.0000000000       0.0000000000       4.3701670080
Hf Mg
3 1
direct
   0.5000000000000000    0.5000000000000000    0.0000000000000000 Hf
   0.2500000000000000    0.7500000000000000    0.5000000000000000 Hf
   0.7500000000000000    0.2500000000000000    0.5000000000000000 Hf
   0.0000000000000000    0.0000000000000000    0.0000000000000000 Mg
