Hf3 Mg1
1.0
      3.4340465195       0.0000000000      -3.1253131214
     -0.6710135048       3.3678504086      -3.1253131214
      0.0000000000       0.0000000000       4.6433024460
Hf Mg
3 1
direct
   0.5000000000000000    0.5000000000000000    0.0000000000000000 Hf
   0.2500000000000000    0.7500000000000000    0.5000000000000000 Hf
   0.7500000000000000    0.2500000000000000    0.5000000000000000 Hf
   0.0000000000000000    0.0000000000000000    0.0000000000000000 Mg
