Hf3 Mg1
1.0
      3.6360492559       0.0000000000      -3.3091550697
     -0.7104848874       3.5659592561      -3.3091550697
      0.0000000000       0.0000000000       4.9164378840
Hf Mg
3 1
direct
   0.5000000000000000    0.5000000000000000    0.0000000000000000 Hf
   0.2500000000000000    0.7500000000000000    0.5000000000000000 Hf
   0.7500000000000000    0.2500000000000000    0.5000000000000000 Hf
   0.0000000000000000    0.0000000000000000    0.0000000000000000 Mg
