Hf3 Mg1
1.0
      3.8380519924       0.0000000000      -3.4929970181
     -0.7499562700       3.7640681037      -3.4929970181
      0.0000000000       0.0000000000       5.1895733220
Hf Mg
3 1
direct
   0.5000000000000000    0.5000000000000000    0.0000000000000000 Hf
   0.2500000000000000    0.7500000000000000    0.5000000000000000 Hf
   0.7500000000000000    0.2500000000000000    0.5000000000000000 Hf
   0.0000000000000000    0.0000000000000000    0.0000000000000000 Mg
