Hf3 Mg1
1.0
      3.0300410466       0.0000000000      -2.7576292248
     -0.5920707395       2.9716327134      -2.7576292248
      0.0000000000       0.0000000000       4.0970315700
Hf Mg
3 1
direct
   0.5000000000000000    0.5000000000000000    0.0000000000000000 Hf
   0.2500000000000000    0.7500000000000000    0.5000000000000000 Hf
   0.7500000000000000    0.2500000000000000    0.5000000000000000 Hf
   0.0000000000000000    0.0000000000000000    0.0000000000000000 Mg
