Li3 Cd1
1.0
      3.6707742506       0.0000000000      -2.9909960305
     -0.8286270985       3.5760258291      -2.9909960305
      0.0000000000       0.0000000000       4.7350439125
Li Cd
3 1
direct
   0.7500000000000000    0.2500000000000000    0.5000000000000000 Li
   0.2500000000000000    0.7500000000000000    0.5000000000000000 Li
   0.5000000000000000    0.5000000000000000    0.0000000000000000 Li
   0.0000000000000000    0.0000000000000000    0.0000000000000000 Cd
