Li3 Cd1
1.0
      2.8979796715       0.0000000000      -2.3613126556
     -0.6541792883       2.8231782862      -2.3613126556
      0.0000000000       0.0000000000       3.7381925625
Li Cd
3 1
direct
   0.7500000000000000    0.2500000000000000    0.5000000000000000 Li
   0.2500000000000000    0.7500000000000000    0.5000000000000000 Li
   0.5000000000000000    0.5000000000000000    0.0000000000000000 Li
   0.0000000000000000    0.0000000000000000    0.0000000000000000 Cd
