Li3 Cd1
1.0
      3.0911783163       0.0000000000      -2.5187334993
     -0.6977912408       3.0113901719      -2.5187334993
      0.0000000000       0.0000000000       3.9874054000
Li Cd
3 1
direct
   0.7500000000000000    0.2500000000000000    0.5000000000000000 Li
   0.2500000000000000    0.7500000000000000    0.5000000000000000 Li
   0.5000000000000000    0.5000000000000000    0.0000000000000000 Li
   0.0000000000000000    0.0000000000000000    0.0000000000000000 Cd
