K3 Rh1
1.0
      5.5448585981       0.0000000000       1.5287506449
      3.8087296230       4.0297686699       1.5287506449
      0.0000000000       0.0000000000       5.2707086195
K Rh
3 1
direct
   0.0000000000000000    0.0000000000000000    0.5000000000000000 K
   0.6574770000000000    0.6574770000000000    0.8738040000000000 K
   0.3425230000000000    0.3425230000000000    0.1261960000000000 K
   0.0000000000000000    0.0000000000000000    0.0000000000000000 Rh
