K3 Rh1
1.0
      6.1971949038       0.0000000000       1.7086036619
      4.2568154610       4.5038591016       1.7086036619
      0.0000000000       0.0000000000       5.8907919865
K Rh
3 1
direct
   0.0000000000000000    0.0000000000000000    0.5000000000000000 K
   0.6574770000000000    0.6574770000000000    0.8738040000000000 K
   0.3425230000000000    0.3425230000000000    0.1261960000000000 K
   0.0000000000000000    0.0000000000000000    0.0000000000000000 Rh
