K3 Rh1
1.0
      5.2186904453       0.0000000000       1.4388241364
      3.5846867040       3.7927234540       1.4388241364
      0.0000000000       0.0000000000       4.9606669360
K Rh
3 1
direct
   0.0000000000000000    0.0000000000000000    0.5000000000000000 K
   0.6574770000000000    0.6574770000000000    0.8738040000000000 K
   0.3425230000000000    0.3425230000000000    0.1261960000000000 K
   0.0000000000000000    0.0000000000000000    0.0000000000000000 Rh
