K3 Rh1
1.0
      4.8925222925       0.0000000000       1.3488976278
      3.3606437850       3.5556782381       1.3488976278
      0.0000000000       0.0000000000       4.6506252525
K Rh
3 1
direct
   0.0000000000000000    0.0000000000000000    0.5000000000000000 K
   0.6574770000000000    0.6574770000000000    0.8738040000000000 K
   0.3425230000000000    0.3425230000000000    0.1261960000000000 K
   0.0000000000000000    0.0000000000000000    0.0000000000000000 Rh
