K3 Rh1
1.0
      5.8710267510       0.0000000000       1.6186771534
      4.0327725420       4.2668138857       1.6186771534
      0.0000000000       0.0000000000       5.5807503030
K Rh
3 1
direct
   0.0000000000000000    0.0000000000000000    0.5000000000000000 K
   0.6574770000000000    0.6574770000000000    0.8738040000000000 K
   0.3425230000000000    0.3425230000000000    0.1261960000000000 K
   0.0000000000000000    0.0000000000000000    0.0000000000000000 Rh
