U2 Mn4
1.0
      4.0274532352       0.0000000000      -2.3263996129
     -1.3416360586       3.7989544597      -2.3252419382
      0.0000000000       0.0000000000       4.6523900880
U Mn
2 4
direct
   0.6247166000000000    0.8748626900000001    0.7499407700000000 U
   0.3752834000000000    0.1251373100000000    0.2500592300000000 U
   0.5000000000000000    0.5000000000000000    0.0000000000000000 Mn
   0.0000000000000000    0.5000000000000000    0.5000000000000000 Mn
   0.0000000000000000    0.0000000000000000    0.5000000000000000 Mn
   0.0000000000000000    0.5000000000000000    0.0000000000000000 Mn
