U2 Mn4
1.0
      3.8037058332       0.0000000000      -2.1971551899
     -1.2671007220       3.5879014341      -2.1960618305
      0.0000000000       0.0000000000       4.3939239720
U Mn
2 4
direct
   0.6247166000000000    0.8748626900000001    0.7499407700000000 U
   0.3752834000000000    0.1251373100000000    0.2500592300000000 U
   0.5000000000000000    0.5000000000000000    0.0000000000000000 Mn
   0.0000000000000000    0.5000000000000000    0.5000000000000000 Mn
   0.0000000000000000    0.0000000000000000    0.5000000000000000 Mn
   0.0000000000000000    0.5000000000000000    0.0000000000000000 Mn
