U2 Mn4
1.0
      4.2512006371       0.0000000000      -2.4556440358
     -1.4161713952       4.0100074852      -2.4544220459
      0.0000000000       0.0000000000       4.9108562040
U Mn
2 4
direct
   0.6247166000000000    0.8748626900000001    0.7499407700000000 U
   0.3752834000000000    0.1251373100000000    0.2500592300000000 U
   0.5000000000000000    0.5000000000000000    0.0000000000000000 Mn
   0.0000000000000000    0.5000000000000000    0.5000000000000000 Mn
   0.0000000000000000    0.0000000000000000    0.5000000000000000 Mn
   0.0000000000000000    0.5000000000000000    0.0000000000000000 Mn
