U2 Mn4
1.0
      3.5799584313       0.0000000000      -2.0679107670
     -1.1925653854       3.3768484086      -2.0668817228
      0.0000000000       0.0000000000       4.1354578560
U Mn
2 4
direct
   0.6247166000000000    0.8748626900000001    0.7499407700000000 U
   0.3752834000000000    0.1251373100000000    0.2500592300000000 U
   0.5000000000000000    0.5000000000000000    0.0000000000000000 Mn
   0.0000000000000000    0.5000000000000000    0.5000000000000000 Mn
   0.0000000000000000    0.0000000000000000    0.5000000000000000 Mn
   0.0000000000000000    0.5000000000000000    0.0000000000000000 Mn
