Mn3 S1
1.0
      2.6838337500       0.0000000000       0.0000000000
     -0.0000000000       2.6838337500       0.0000000000
      0.0000000000       0.0000000000       2.6838337500
Mn S
3 1
direct
   0.0000000000000000    0.5000000000000000    0.5000000000000000 Mn
   0.5000000000000000    0.0000000000000000    0.5000000000000000 Mn
   0.5000000000000000    0.5000000000000000    0.0000000000000000 Mn
   0.0000000000000000    0.0000000000000000    0.0000000000000000 S
