Mn2 Pt2
1.0
      2.5902790275       0.0000000000       0.0000000000
     -0.0000000000       3.1297074150       0.0000000000
      0.0000000000       0.0000000000       3.1297074150
Mn Pt
2 2
direct
   0.0000000000000000    0.0000000000000000    0.0000000000000000 Mn
   0.0000000000000000    0.5000000000000000    0.5000000000000000 Mn
   0.5000000000000000    0.0000000000000000    0.5000000000000000 Pt
   0.5000000000000000    0.5000000000000000    0.0000000000000000 Pt
