Mn2 Pt2
1.0
      2.7629642960       0.0000000000       0.0000000000
     -0.0000000000       3.3383545760       0.0000000000
      0.0000000000       0.0000000000       3.3383545760
Mn Pt
2 2
direct
   0.0000000000000000    0.0000000000000000    0.0000000000000000 Mn
   0.0000000000000000    0.5000000000000000    0.5000000000000000 Mn
   0.5000000000000000    0.0000000000000000    0.5000000000000000 Pt
   0.5000000000000000    0.5000000000000000    0.0000000000000000 Pt
