Mn2 Pt2
1.0
      2.9356495645       0.0000000000       0.0000000000
     -0.0000000000       3.5470017370       0.0000000000
      0.0000000000       0.0000000000       3.5470017370
Mn Pt
2 2
direct
   0.0000000000000000    0.0000000000000000    0.0000000000000000 Mn
   0.0000000000000000    0.5000000000000000    0.5000000000000000 Mn
   0.5000000000000000    0.0000000000000000    0.5000000000000000 Pt
   0.5000000000000000    0.5000000000000000    0.0000000000000000 Pt
