Li1 Zn3
1.0
      2.5183410390       0.0000000000       0.0000000000
     -1.2591711590       2.1809469460       0.0000000000
      0.0000000000       0.0000000000       7.9442460000
Li Zn
1 3
direct
   0.0000000000000000    0.0000000000000000    0.0000000000000000 Li
   0.0000000000000000    0.0000000000000000    0.5000000000000000 Zn
   0.6666666666666666    0.3333333333333333    0.2493840000000000 Zn
   0.6666666666666666    0.3333333333333333    0.7506159999999999 Zn
