Cu4 Se8
1.0
      4.6007390842       0.0000000000       0.0000831149
      0.0000061347       4.6007369400       0.0000014622
      0.0000000000       0.0000000000       4.6007437875
Cu Se
4 8
direct
   0.9999995600000000    0.9999998300000000    0.9999998900000000 Cu
   0.5000003900000000    0.0000003600000000    0.5000000200000000 Cu
   0.5000000400000000    0.4999995500000000    0.9999999400000000 Cu
   0.0000004100000000    0.5000001300000000    0.5000001400000000 Cu
   0.3903022200000000    0.3903124900000000    0.3903089900000000 Se
   0.1096930000000000    0.6096984800000000    0.8902998000000000 Se
   0.8903082300000000    0.1097035900000000    0.6096965600000001 Se
   0.6096968699999999    0.8903082900000000    0.1096903600000000 Se
   0.6096981000000000    0.6096888600000000    0.6096912700000000 Se
   0.8903070900000000    0.3903013900000000    0.1097002400000000 Se
   0.1096921000000000    0.8902977399999999    0.3903021900000000 Se
   0.3903030000000000    0.1096912800000000    0.8903096000000000 Se
