Ti3 Cu1
1.0
      2.9760465000       0.0000000000       0.0000000000
     -0.0000000000       2.9760465000       0.0000000000
      0.0000000000       0.0000000000       2.9760465000
Ti Cu
3 1
direct
   0.5000000000000000    0.5000000000000000    0.0000000000000000 Ti
   0.0000000000000000    0.5000000000000000    0.5000000000000000 Ti
   0.5000000000000000    0.0000000000000000    0.5000000000000000 Ti
   0.0000000000000000    0.0000000000000000    0.0000000000000000 Cu
