K3 Ge1
1.0
      4.4879053181       0.0000000000       2.5910933435
      1.4959684394       4.2312377117       2.5910933435
      0.0000000000       0.0000000000       5.1821866870
K Ge
3 1
direct
   0.2500000000000000    0.2500000000000000    0.2500000000000000 K
   0.7500000000000000    0.7500000000000000    0.7500000000000000 K
   0.5000000000000000    0.5000000000000000    0.5000000000000000 K
   0.0000000000000000    0.0000000000000000    0.0000000000000000 Ge
