K3 Ge1
1.0
      4.7518997486       0.0000000000       2.7435105990
      1.5839665829       4.4801340476       2.7435105990
      0.0000000000       0.0000000000       5.4870211980
K Ge
3 1
direct
   0.2500000000000000    0.2500000000000000    0.2500000000000000 K
   0.7500000000000000    0.7500000000000000    0.7500000000000000 K
   0.5000000000000000    0.5000000000000000    0.5000000000000000 K
   0.0000000000000000    0.0000000000000000    0.0000000000000000 Ge
