K3 Ge1
1.0
      3.9599164571       0.0000000000       2.2862588325
      1.3199721524       3.7334450397       2.2862588325
      0.0000000000       0.0000000000       4.5725176650
K Ge
3 1
direct
   0.2500000000000000    0.2500000000000000    0.2500000000000000 K
   0.7500000000000000    0.7500000000000000    0.7500000000000000 K
   0.5000000000000000    0.5000000000000000    0.5000000000000000 K
   0.0000000000000000    0.0000000000000000    0.0000000000000000 Ge
