K3 Ge1
1.0
      4.2239108876       0.0000000000       2.4386760880
      1.4079702959       3.9823413757       2.4386760880
      0.0000000000       0.0000000000       4.8773521760
K Ge
3 1
direct
   0.2500000000000000    0.2500000000000000    0.2500000000000000 K
   0.7500000000000000    0.7500000000000000    0.7500000000000000 K
   0.5000000000000000    0.5000000000000000    0.5000000000000000 K
   0.0000000000000000    0.0000000000000000    0.0000000000000000 Ge
