K3 Ge1
1.0
      5.0158941790       0.0000000000       2.8959278545
      1.6719647263       4.7290303836       2.8959278545
      0.0000000000       0.0000000000       5.7918557090
K Ge
3 1
direct
   0.2500000000000000    0.2500000000000000    0.2500000000000000 K
   0.7500000000000000    0.7500000000000000    0.7500000000000000 K
   0.5000000000000000    0.5000000000000000    0.5000000000000000 K
   0.0000000000000000    0.0000000000000000    0.0000000000000000 Ge
