Mg2 Te2
1.0
      4.3606923750       0.0000000000       0.0000000000
     -2.1803466724       3.7764701826       0.0000000000
      0.0000000000       0.0000000000       7.0659154245
Mg Te
2 2
direct
   0.3333333333333333    0.6666666666666666    0.9959911700000000 Mg
   0.6666666666666666    0.3333333333333333    0.4959911700000000 Mg
   0.3333333333333333    0.6666666666666666    0.3740088300000000 Te
   0.6666666666666666    0.3333333333333333    0.8740088300000000 Te
