Mg2 Te2
1.0
      3.4426518750       0.0000000000       0.0000000000
     -1.7213263203       2.9814238284       0.0000000000
      0.0000000000       0.0000000000       5.5783542825
Mg Te
2 2
direct
   0.3333333333333333    0.6666666666666666    0.9959911700000000 Mg
   0.6666666666666666    0.3333333333333333    0.4959911700000000 Mg
   0.3333333333333333    0.6666666666666666    0.3740088300000000 Te
   0.6666666666666666    0.3333333333333333    0.8740088300000000 Te
