Mg2 Te2
1.0
      4.1311822500       0.0000000000       0.0000000000
     -2.0655915844       3.5777085941       0.0000000000
      0.0000000000       0.0000000000       6.6940251390
Mg Te
2 2
direct
   0.3333333333333333    0.6666666666666666    0.9959911700000000 Mg
   0.6666666666666666    0.3333333333333333    0.4959911700000000 Mg
   0.3333333333333333    0.6666666666666666    0.3740088300000000 Te
   0.6666666666666666    0.3333333333333333    0.8740088300000000 Te
