Mg2 Te2
1.0
      3.6721620000       0.0000000000       0.0000000000
     -1.8360814083       3.1801854170       0.0000000000
      0.0000000000       0.0000000000       5.9502445680
Mg Te
2 2
direct
   0.3333333333333333    0.6666666666666666    0.9959911700000000 Mg
   0.6666666666666666    0.3333333333333333    0.4959911700000000 Mg
   0.3333333333333333    0.6666666666666666    0.3740088300000000 Te
   0.6666666666666666    0.3333333333333333    0.8740088300000000 Te
