Li1 H1
1.0
      2.2140413997       0.0000000000       1.2782771997
      0.7380134997       2.0874185989       1.2782771994
      0.0000000000       0.0000000000       2.5565553000
Li H
1 1
direct
   0.0000000000000000    0.0000000000000000    0.0000000000000000 Li
   0.5000000000000000    0.5000000000000000    0.5000000000000000 H
