Li1 H1
1.0
      2.0910390997       0.0000000000       1.2072617997
      0.6970127497       1.9714508989       1.2072617994
      0.0000000000       0.0000000000       2.4145244500
Li H
1 1
direct
   0.0000000000000000    0.0000000000000000    0.0000000000000000 Li
   0.5000000000000000    0.5000000000000000    0.5000000000000000 H
