K3 Cd1
1.0
      4.7756676345       0.0000000000      -2.9026920998
     -1.5106127265       4.5304580945      -2.9026920998
      0.0000000000       0.0000000000       5.5886154620
K Cd
3 1
direct
   0.7500000000000000    0.2500000000000000    0.5000000000000000 K
   0.2500000000000000    0.7500000000000000    0.5000000000000000 K
   0.5000000000000000    0.5000000000000000    0.0000000000000000 K
   0.0000000000000000    0.0000000000000000    0.0000000000000000 Cd
