K3 Cd1
1.0
      5.0565892601       0.0000000000      -3.0734386939
     -1.5994722986       4.7969556295      -3.0734386939
      0.0000000000       0.0000000000       5.9173575480
K Cd
3 1
direct
   0.7500000000000000    0.2500000000000000    0.5000000000000000 K
   0.2500000000000000    0.7500000000000000    0.5000000000000000 K
   0.5000000000000000    0.5000000000000000    0.0000000000000000 K
   0.0000000000000000    0.0000000000000000    0.0000000000000000 Cd
