K3 Cd1
1.0
      5.3375108857       0.0000000000      -3.2441852881
     -1.6883318708       5.0634531645      -3.2441852881
      0.0000000000       0.0000000000       6.2460996340
K Cd
3 1
direct
   0.7500000000000000    0.2500000000000000    0.5000000000000000 K
   0.2500000000000000    0.7500000000000000    0.5000000000000000 K
   0.5000000000000000    0.5000000000000000    0.0000000000000000 K
   0.0000000000000000    0.0000000000000000    0.0000000000000000 Cd
