K3 Cd1
1.0
      4.4947460090       0.0000000000      -2.7319455057
     -1.4217531543       4.2639605596      -2.7319455057
      0.0000000000       0.0000000000       5.2598733760
K Cd
3 1
direct
   0.7500000000000000    0.2500000000000000    0.5000000000000000 K
   0.2500000000000000    0.7500000000000000    0.5000000000000000 K
   0.5000000000000000    0.5000000000000000    0.0000000000000000 K
   0.0000000000000000    0.0000000000000000    0.0000000000000000 Cd
