K3 Cd1
1.0
      4.2138243834       0.0000000000      -2.5611989116
     -1.3328935822       3.9974630246      -2.5611989116
      0.0000000000       0.0000000000       4.9311312900
K Cd
3 1
direct
   0.7500000000000000    0.2500000000000000    0.5000000000000000 K
   0.2500000000000000    0.7500000000000000    0.5000000000000000 K
   0.5000000000000000    0.5000000000000000    0.0000000000000000 K
   0.0000000000000000    0.0000000000000000    0.0000000000000000 Cd
