Cu4 S2
1.0
      3.9417011760       0.0000000000      -0.1269898973
      0.1001042547       3.9404298368      -0.1269898973
      0.0000000000       0.0000000000       3.9306026320
Cu S
4 2
direct
   0.5000000000000000    0.5000000000000000    0.5000000000000000 Cu
   0.5000000000000000    0.0000000000000000    0.5000000000000000 Cu
   0.0000000000000000    0.5000000000000000    0.5000000000000000 Cu
   0.5000000000000000    0.5000000000000000    0.0000000000000000 Cu
   0.2414215400000000    0.2414215400000000    0.2276258000000000 S
   0.7585784600000000    0.7585784600000000    0.7723742000000000 S
