Cu4 S2
1.0
      4.1880574995       0.0000000000      -0.1349267659
      0.1063607707       4.1867067016      -0.1349267659
      0.0000000000       0.0000000000       4.1762652965
Cu S
4 2
direct
   0.5000000000000000    0.5000000000000000    0.5000000000000000 Cu
   0.5000000000000000    0.0000000000000000    0.5000000000000000 Cu
   0.0000000000000000    0.5000000000000000    0.5000000000000000 Cu
   0.5000000000000000    0.5000000000000000    0.0000000000000000 Cu
   0.2414215400000000    0.2414215400000000    0.2276258000000000 S
   0.7585784600000000    0.7585784600000000    0.7723742000000000 S
