Cu4 S2
1.0
      3.6953448525       0.0000000000      -0.1190530287
      0.0938477388       3.6941529720      -0.1190530287
      0.0000000000       0.0000000000       3.6849399675
Cu S
4 2
direct
   0.5000000000000000    0.5000000000000000    0.5000000000000000 Cu
   0.5000000000000000    0.0000000000000000    0.5000000000000000 Cu
   0.0000000000000000    0.5000000000000000    0.5000000000000000 Cu
   0.5000000000000000    0.5000000000000000    0.0000000000000000 Cu
   0.2414215400000000    0.2414215400000000    0.2276258000000000 S
   0.7585784600000000    0.7585784600000000    0.7723742000000000 S
