Cu4 S2
1.0
      4.6807701465       0.0000000000      -0.1508005031
      0.1188738025       4.6792604312      -0.1508005031
      0.0000000000       0.0000000000       4.6675906255
Cu S
4 2
direct
   0.5000000000000000    0.5000000000000000    0.5000000000000000 Cu
   0.5000000000000000    0.0000000000000000    0.5000000000000000 Cu
   0.0000000000000000    0.5000000000000000    0.5000000000000000 Cu
   0.5000000000000000    0.5000000000000000    0.0000000000000000 Cu
   0.2414215400000000    0.2414215400000000    0.2276258000000000 S
   0.7585784600000000    0.7585784600000000    0.7723742000000000 S
