Li1 F1
1.0
      2.3035797000       0.0000000000       0.0000000000
      0.0000000000       2.3035797000       0.0000000000
      0.0000000000       0.0000000000       2.3035797000
Li F
1 1
direct
   0.0000000000000000    0.0000000000000000    0.0000000000000000 Li
   0.5000000000000000    0.5000000000000000    0.5000000000000000 F
