Li2 O4
1.0
      3.1502819087       0.0000000000       1.6765402704
     -0.8070782292       3.0451438120       1.6765402704
      0.0000000000       0.0000000000       3.5201653415
Li O
2 4
direct
   0.2516550000000000    0.7483450000000000    0.5000000000000000 Li
   0.7483450000000000    0.2516550000000000    0.5000000000000000 Li
   0.2098500000000000    0.7901500000000000    0.0000000000000000 O
   0.7901500000000000    0.2098500000000000    0.0000000000000000 O
   0.7906060000000000    0.7906060000000000    0.0076510000000000 O
   0.2093940000000000    0.2093940000000000    0.9923490000000000 O
