Li2 O4
1.0
      2.9649712081       0.0000000000       1.5779202545
     -0.7596030392       2.8660177054       1.5779202545
      0.0000000000       0.0000000000       3.3130967920
Li O
2 4
direct
   0.2516550000000000    0.7483450000000000    0.5000000000000000 Li
   0.7483450000000000    0.2516550000000000    0.5000000000000000 Li
   0.2098500000000000    0.7901500000000000    0.0000000000000000 O
   0.7901500000000000    0.2098500000000000    0.0000000000000000 O
   0.7906060000000000    0.7906060000000000    0.0076510000000000 O
   0.2093940000000000    0.2093940000000000    0.9923490000000000 O
