Li2 O4
1.0
      2.7796605076       0.0000000000       1.4793002386
     -0.7121278493       2.6868915989       1.4793002386
      0.0000000000       0.0000000000       3.1060282425
Li O
2 4
direct
   0.2516550000000000    0.7483450000000000    0.5000000000000000 Li
   0.7483450000000000    0.2516550000000000    0.5000000000000000 Li
   0.2098500000000000    0.7901500000000000    0.0000000000000000 O
   0.7901500000000000    0.2098500000000000    0.0000000000000000 O
   0.7906060000000000    0.7906060000000000    0.0076510000000000 O
   0.2093940000000000    0.2093940000000000    0.9923490000000000 O
