Cu4 O4
1.0
      5.8069414500       0.0000000000      -0.4694283607
     -4.9409184271       3.0508841507      -0.4694283607
      0.0000000000       0.0000000000       5.8258846530
Cu O
4 4
direct
   0.1673740000000000    0.1673740000000000    0.3347480000000000 Cu
   0.8326260000000000    0.1673740000000000    0.0000000000000000 Cu
   0.1673740000000000    0.8326260000000000    0.0000000000000000 Cu
   0.8326260000000000    0.8326260000000000    0.6652520000000000 Cu
   0.2734060000000000    0.0000000000000000    0.2734060000000000 O
   0.0000000000000000    0.2734060000000000    0.2734060000000000 O
   0.0000000000000000    0.7265940000000000    0.7265940000000000 O
   0.7265940000000000    0.0000000000000000    0.7265940000000000 O
