Cu4 O4
1.0
      5.4843335917       0.0000000000      -0.4433490073
     -4.6664229589       2.8813905868      -0.4433490073
      0.0000000000       0.0000000000       5.5022243945
Cu O
4 4
direct
   0.1673740000000000    0.1673740000000000    0.3347480000000000 Cu
   0.8326260000000000    0.1673740000000000    0.0000000000000000 Cu
   0.1673740000000000    0.8326260000000000    0.0000000000000000 Cu
   0.8326260000000000    0.8326260000000000    0.6652520000000000 Cu
   0.2734060000000000    0.0000000000000000    0.2734060000000000 O
   0.0000000000000000    0.2734060000000000    0.2734060000000000 O
   0.0000000000000000    0.7265940000000000    0.7265940000000000 O
   0.7265940000000000    0.0000000000000000    0.7265940000000000 O
