Cu4 O4
1.0
      5.1617257334       0.0000000000      -0.4172696539
     -4.3919274908       2.7118970229      -0.4172696539
      0.0000000000       0.0000000000       5.1785641360
Cu O
4 4
direct
   0.1673740000000000    0.1673740000000000    0.3347480000000000 Cu
   0.8326260000000000    0.1673740000000000    0.0000000000000000 Cu
   0.1673740000000000    0.8326260000000000    0.0000000000000000 Cu
   0.8326260000000000    0.8326260000000000    0.6652520000000000 Cu
   0.2734060000000000    0.0000000000000000    0.2734060000000000 O
   0.0000000000000000    0.2734060000000000    0.2734060000000000 O
   0.0000000000000000    0.7265940000000000    0.7265940000000000 O
   0.7265940000000000    0.0000000000000000    0.7265940000000000 O
