Cu4 O4
1.0
      6.1295493084       0.0000000000      -0.4955077140
     -5.2154138953       3.2203777146      -0.4955077140
      0.0000000000       0.0000000000       6.1495449115
Cu O
4 4
direct
   0.1673740000000000    0.1673740000000000    0.3347480000000000 Cu
   0.8326260000000000    0.1673740000000000    0.0000000000000000 Cu
   0.1673740000000000    0.8326260000000000    0.0000000000000000 Cu
   0.8326260000000000    0.8326260000000000    0.6652520000000000 Cu
   0.2734060000000000    0.0000000000000000    0.2734060000000000 O
   0.0000000000000000    0.2734060000000000    0.2734060000000000 O
   0.0000000000000000    0.7265940000000000    0.7265940000000000 O
   0.7265940000000000    0.0000000000000000    0.7265940000000000 O
