Cu4 O4
1.0
      4.8391178750       0.0000000000      -0.3911903006
     -4.1174320226       2.5424034589      -0.3911903006
      0.0000000000       0.0000000000       4.8549038775
Cu O
4 4
direct
   0.1673740000000000    0.1673740000000000    0.3347480000000000 Cu
   0.8326260000000000    0.1673740000000000    0.0000000000000000 Cu
   0.1673740000000000    0.8326260000000000    0.0000000000000000 Cu
   0.8326260000000000    0.8326260000000000    0.6652520000000000 Cu
   0.2734060000000000    0.0000000000000000    0.2734060000000000 O
   0.0000000000000000    0.2734060000000000    0.2734060000000000 O
   0.0000000000000000    0.7265940000000000    0.7265940000000000 O
   0.7265940000000000    0.0000000000000000    0.7265940000000000 O
