Li1 Ho3
1.0
      3.9537547884       0.0000000000      -3.8043602697
     -0.7159558223       3.8883909509      -3.8043602697
      0.0000000000       0.0000000000       5.4868327830
Li Ho
1 3
direct
   0.0000000000000000    0.0000000000000000    0.0000000000000000 Li
   0.7500000000000000    0.2500000000000000    0.5000000000000000 Ho
   0.2500000000000000    0.7500000000000000    0.5000000000000000 Ho
   0.5000000000000000    0.5000000000000000    0.0000000000000000 Ho
