Li1 Ho3
1.0
      3.5144487008       0.0000000000      -3.3816535731
     -0.6364051754       3.4563475119      -3.3816535731
      0.0000000000       0.0000000000       4.8771846960
Li Ho
1 3
direct
   0.0000000000000000    0.0000000000000000    0.0000000000000000 Li
   0.7500000000000000    0.2500000000000000    0.5000000000000000 Ho
   0.2500000000000000    0.7500000000000000    0.5000000000000000 Ho
   0.5000000000000000    0.5000000000000000    0.0000000000000000 Ho
