Li1 Ho3
1.0
      4.1734078322       0.0000000000      -4.0157136181
     -0.7557311458       4.1044126704      -4.0157136181
      0.0000000000       0.0000000000       5.7916568265
Li Ho
1 3
direct
   0.0000000000000000    0.0000000000000000    0.0000000000000000 Li
   0.7500000000000000    0.2500000000000000    0.5000000000000000 Ho
   0.2500000000000000    0.7500000000000000    0.5000000000000000 Ho
   0.5000000000000000    0.5000000000000000    0.0000000000000000 Ho
