In3 Cu1
1.0
      3.8103519500       0.0000000000       0.0000000000
     -0.0000000000       3.8103519500       0.0000000000
      0.0000000000       0.0000000000       3.8103519500
In Cu
3 1
direct
   0.0000000000000000    0.5000000000000000    0.5000000000000000 In
   0.5000000000000000    0.0000000000000000    0.5000000000000000 In
   0.5000000000000000    0.5000000000000000    0.0000000000000000 In
   0.0000000000000000    0.0000000000000000    0.0000000000000000 Cu
