Li16 Ag10
1.0
      7.3476888471       0.0000000000      -2.5978003043
     -3.6738444223       6.3632852014      -2.5978003043
      0.0000000000       0.0000000000       7.7934009145
Li Ag
16 10
direct
   0.3712919400000000    0.6529088700000000    0.6529088700000000 Li
   0.6287080600000000    0.2816169200000000    0.2816169200000000 Li
   0.0000000000000000    0.3470911300000000    0.7183830800000000 Li
   0.6529088700000000    0.6529088700000000    0.3712919400000000 Li
   0.0000000000000000    0.7183830800000000    0.3470911300000000 Li
   0.2816169200000000    0.2816169200000000    0.6287080600000000 Li
   0.3470911300000000    0.7183830800000000    0.0000000000000000 Li
   0.7183830800000000    0.3470911300000000    0.0000000000000000 Li
   0.6529088700000000    0.3712919400000000    0.6529088700000000 Li
   0.7183830800000000    0.0000000000000000    0.3470911300000000 Li
   0.3470911300000000    0.0000000000000000    0.7183830800000000 Li
   0.2816169200000000    0.6287080600000000    0.2816169200000000 Li
   0.7713341200000000    0.7713341200000000    0.7713341200000000 Li
   0.2286658800000000    0.0000000000000000    0.0000000000000000 Li
   0.0000000000000000    0.2286658800000000    0.0000000000000000 Li
   0.0000000000000000    0.0000000000000000    0.2286658800000000 Li
   0.3437802400000000    0.3437802400000000    0.3437802400000000 Ag
   0.6562197600000000    0.0000000000000000    0.0000000000000000 Ag
   0.0000000000000000    0.6562197600000000    0.0000000000000000 Ag
   0.0000000000000000    0.0000000000000000    0.6562197600000000 Ag
   0.6458609800000000    0.6458609800000000    0.0000000000000000 Ag
   0.3541390200000000    0.3541390200000000    0.0000000000000000 Ag
   0.6458609800000000    0.0000000000000000    0.6458609800000000 Ag
   0.3541390200000000    0.0000000000000000    0.3541390200000000 Ag
   0.0000000000000000    0.6458609800000000    0.6458609800000000 Ag
   0.0000000000000000    0.3541390200000000    0.3541390200000000 Ag
