Mn6 Te2
1.0
      4.0778339250       0.0000000000       0.0000000000
     -2.0389168879       3.5315078145       0.0000000000
      0.0000000000       0.0000000000       3.2743297500
Mn Te
6 2
direct
   0.1521520000000000    0.3043050000000000    0.2500000000000000 Mn
   0.6956950000000000    0.8478480000000000    0.2500000000000000 Mn
   0.1521520000000000    0.8478480000000000    0.2500000000000000 Mn
   0.8478480000000000    0.6956950000000000    0.7500000000000000 Mn
   0.3043050000000000    0.1521520000000000    0.7500000000000000 Mn
   0.8478480000000000    0.1521520000000000    0.7500000000000000 Mn
   0.3333333333333333    0.6666666666666666    0.7500000000000000 Te
   0.6666666666666666    0.3333333333333333    0.2500000000000000 Te
