K1 P1
1.0
      3.4846254586       0.0000000000       1.9501279222
      1.1966296810       3.2727193576       1.9501279222
      0.0000000000       0.0000000000       4.0883513010
K P
1 1
direct
   0.0000000000000000    0.0000000000000000    0.0000000000000000 K
   0.5000000000000000    0.5000000000000000    0.5000000000000000 P
