K1 P1
1.0
      3.0746695223       0.0000000000       1.7207011078
      1.0558497185       2.8876935508       1.7207011078
      0.0000000000       0.0000000000       3.6073687950
K P
1 1
direct
   0.0000000000000000    0.0000000000000000    0.0000000000000000 K
   0.5000000000000000    0.5000000000000000    0.5000000000000000 P
