K1 P1
1.0
      3.6896034268       0.0000000000       2.0648413294
      1.2670196623       3.4652322609       2.0648413294
      0.0000000000       0.0000000000       4.3288425540
K P
1 1
direct
   0.0000000000000000    0.0000000000000000    0.0000000000000000 K
   0.5000000000000000    0.5000000000000000    0.5000000000000000 P
