K1 P1
1.0
      3.8945813949       0.0000000000       2.1795547366
      1.3374096435       3.6577451643       2.1795547366
      0.0000000000       0.0000000000       4.5693338070
K P
1 1
direct
   0.0000000000000000    0.0000000000000000    0.0000000000000000 K
   0.5000000000000000    0.5000000000000000    0.5000000000000000 P
