K1 P1
1.0
      3.2796474905       0.0000000000       1.8354145150
      1.1262396998       3.0802064542       1.8354145150
      0.0000000000       0.0000000000       3.8478600480
K P
1 1
direct
   0.0000000000000000    0.0000000000000000    0.0000000000000000 K
   0.5000000000000000    0.5000000000000000    0.5000000000000000 P
