Mn10 Al16
1.0
      5.4523358157       0.0000000000      -1.9345163842
     -2.7390487864       4.7144010853      -1.9345163842
      0.0000000000       0.0000000000       5.7853540500
Mn Al
10 16
direct
   0.1508790000000000    0.1508790000000000    0.1508790000000000 Mn
   0.7889450000000000    0.0008820000000000    0.0008820000000000 Mn
   0.0008820000000000    0.0008820000000000    0.7889450000000000 Mn
   0.0008820000000000    0.7889450000000000    0.0008820000000000 Mn
   0.3289390000000000    0.9876350000000000    0.9876350000000000 Mn
   0.9876350000000000    0.9876350000000000    0.3289390000000000 Mn
   0.9876350000000000    0.3289390000000000    0.9876350000000000 Mn
   0.0211250000000000    0.3677940000000000    0.3677940000000000 Mn
   0.3677940000000000    0.3677940000000000    0.0211250000000000 Mn
   0.3677940000000000    0.0211250000000000    0.3677940000000000 Mn
   0.6893160000000000    0.6893160000000000    0.6893160000000000 Al
   0.9995030000000000    0.6414290000000000    0.6414290000000000 Al
   0.6414290000000000    0.6414290000000000    0.9995030000000000 Al
   0.6414290000000000    0.9995030000000000    0.6414290000000000 Al
   0.5561030000000000    0.3363470000000000    0.3363470000000000 Al
   0.3363470000000000    0.3363470000000000    0.5561030000000000 Al
   0.3363470000000000    0.5561030000000000    0.3363470000000000 Al
   0.3824860000000000    0.7374650000000000    0.7374650000000000 Al
   0.7374650000000000    0.7374650000000000    0.3824860000000000 Al
   0.7374650000000000    0.3824860000000000    0.7374650000000000 Al
   0.0465540000000000    0.6731090000000000    0.2791360000000000 Al
   0.6731090000000000    0.2791360000000000    0.0465540000000000 Al
   0.2791360000000000    0.0465540000000000    0.6731090000000000 Al
   0.0465540000000000    0.2791360000000000    0.6731090000000000 Al
   0.2791360000000000    0.6731090000000000    0.0465540000000000 Al
   0.6731090000000000    0.0465540000000000    0.2791360000000000 Al
