K3 Os1
1.0
      4.5662630931       0.0000000000       2.6363332260
      1.5220876977       4.3051141304       2.6363332260
      0.0000000000       0.0000000000       5.2726664520
K Os
3 1
direct
   0.2500000000000000    0.2500000000000000    0.2500000000000000 K
   0.7500000000000000    0.7500000000000000    0.7500000000000000 K
   0.5000000000000000    0.5000000000000000    0.5000000000000000 K
   0.0000000000000000    0.0000000000000000    0.0000000000000000 Os
