K3 Os1
1.0
      3.8052192443       0.0000000000       2.1969443550
      1.2684064148       3.5875951087       2.1969443550
      0.0000000000       0.0000000000       4.3938887100
K Os
3 1
direct
   0.2500000000000000    0.2500000000000000    0.2500000000000000 K
   0.7500000000000000    0.7500000000000000    0.7500000000000000 K
   0.5000000000000000    0.5000000000000000    0.5000000000000000 K
   0.0000000000000000    0.0000000000000000    0.0000000000000000 Os
