K3 Os1
1.0
      4.8199443761       0.0000000000       2.7827961830
      1.6066481254       4.5442871377       2.7827961830
      0.0000000000       0.0000000000       5.5655923660
K Os
3 1
direct
   0.2500000000000000    0.2500000000000000    0.2500000000000000 K
   0.7500000000000000    0.7500000000000000    0.7500000000000000 K
   0.5000000000000000    0.5000000000000000    0.5000000000000000 K
   0.0000000000000000    0.0000000000000000    0.0000000000000000 Os
