K3 Os1
1.0
      4.0589005272       0.0000000000       2.3434073120
      1.3529668424       3.8267681159       2.3434073120
      0.0000000000       0.0000000000       4.6868146240
K Os
3 1
direct
   0.2500000000000000    0.2500000000000000    0.2500000000000000 K
   0.7500000000000000    0.7500000000000000    0.7500000000000000 K
   0.5000000000000000    0.5000000000000000    0.5000000000000000 K
   0.0000000000000000    0.0000000000000000    0.0000000000000000 Os
