K3 Os1
1.0
      4.3125818102       0.0000000000       2.4898702690
      1.4375272701       4.0659411232       2.4898702690
      0.0000000000       0.0000000000       4.9797405380
K Os
3 1
direct
   0.2500000000000000    0.2500000000000000    0.2500000000000000 K
   0.7500000000000000    0.7500000000000000    0.7500000000000000 K
   0.5000000000000000    0.5000000000000000    0.5000000000000000 K
   0.0000000000000000    0.0000000000000000    0.0000000000000000 Os
