Li3 Zr1
1.0
      3.0733567185       0.0000000000       1.7744033288
      1.0244522395       2.8975885022       1.7744033288
      0.0000000000       0.0000000000       3.5488066575
Li Zr
3 1
direct
   0.2500000000000000    0.2500000000000000    0.2500000000000000 Li
   0.7500000000000000    0.7500000000000000    0.7500000000000000 Li
   0.5000000000000000    0.5000000000000000    0.5000000000000000 Li
   0.0000000000000000    0.0000000000000000    0.0000000000000000 Zr
