Li3 Zr1
1.0
      3.6880280622       0.0000000000       2.1292839945
      1.2293426874       3.4771062027       2.1292839945
      0.0000000000       0.0000000000       4.2585679890
Li Zr
3 1
direct
   0.2500000000000000    0.2500000000000000    0.2500000000000000 Li
   0.7500000000000000    0.7500000000000000    0.7500000000000000 Li
   0.5000000000000000    0.5000000000000000    0.5000000000000000 Li
   0.0000000000000000    0.0000000000000000    0.0000000000000000 Zr
