Y1 Zn5
1.0
      4.9833309820       0.0000000000       0.0000000000
     -2.4916654905       4.3156903047       0.0000000000
      0.0000000000       0.0000000000       3.9639553130
Y Zn
1 5
direct
   0.0000000000000000    0.0000000000000000    0.0000000000000000 Y
   0.0000000000000000    0.5000000000000000    0.5000000000000000 Zn
   0.3333333333333333    0.6666666666666666    0.0000000000000000 Zn
   0.6666666666666666    0.3333333333333333    0.0000000000000000 Zn
   0.5000000000000000    0.0000000000000000    0.5000000000000000 Zn
   0.5000000000000000    0.5000000000000000    0.5000000000000000 Zn
