Y1 Zn5
1.0
      4.4587698260       0.0000000000       0.0000000000
     -2.2293849125       3.8614071148       0.0000000000
      0.0000000000       0.0000000000       3.5466968590
Y Zn
1 5
direct
   0.0000000000000000    0.0000000000000000    0.0000000000000000 Y
   0.0000000000000000    0.5000000000000000    0.5000000000000000 Zn
   0.3333333333333333    0.6666666666666666    0.0000000000000000 Zn
   0.6666666666666666    0.3333333333333333    0.0000000000000000 Zn
   0.5000000000000000    0.0000000000000000    0.5000000000000000 Zn
   0.5000000000000000    0.5000000000000000    0.5000000000000000 Zn
