Y1 Zn5
1.0
      3.9342086700       0.0000000000       0.0000000000
     -1.9671043346       3.4071239248       0.0000000000
      0.0000000000       0.0000000000       3.1294384050
Y Zn
1 5
direct
   0.0000000000000000    0.0000000000000000    0.0000000000000000 Y
   0.0000000000000000    0.5000000000000000    0.5000000000000000 Zn
   0.3333333333333333    0.6666666666666666    0.0000000000000000 Zn
   0.6666666666666666    0.3333333333333333    0.0000000000000000 Zn
   0.5000000000000000    0.0000000000000000    0.5000000000000000 Zn
   0.5000000000000000    0.5000000000000000    0.5000000000000000 Zn
