K3 Ti1
1.0
      4.6185157418       0.0000000000      -3.9763907804
     -0.9713493810       4.5152151706      -3.9763907804
      0.0000000000       0.0000000000       6.0944541425
K Ti
3 1
direct
   0.7500000000000000    0.2500000000000000    0.5000000000000000 K
   0.2500000000000000    0.7500000000000000    0.5000000000000000 K
   0.5000000000000000    0.5000000000000000    0.0000000000000000 K
   0.0000000000000000    0.0000000000000000    0.0000000000000000 Ti
