K3 Ti1
1.0
      4.0751609486       0.0000000000      -3.5085801003
     -0.8570729832       3.9840133858      -3.5085801003
      0.0000000000       0.0000000000       5.3774595375
K Ti
3 1
direct
   0.7500000000000000    0.2500000000000000    0.5000000000000000 K
   0.2500000000000000    0.7500000000000000    0.5000000000000000 K
   0.5000000000000000    0.5000000000000000    0.0000000000000000 K
   0.0000000000000000    0.0000000000000000    0.0000000000000000 Ti
