K3 Ti1
1.0
      4.8901931383       0.0000000000      -4.2102961204
     -1.0284875798       4.7808160630      -4.2102961204
      0.0000000000       0.0000000000       6.4529514450
K Ti
3 1
direct
   0.7500000000000000    0.2500000000000000    0.5000000000000000 K
   0.2500000000000000    0.7500000000000000    0.5000000000000000 K
   0.5000000000000000    0.5000000000000000    0.0000000000000000 K
   0.0000000000000000    0.0000000000000000    0.0000000000000000 Ti
