K3 Ti1
1.0
      5.1618705349       0.0000000000      -4.4442014604
     -1.0856257787       5.0464169554      -4.4442014604
      0.0000000000       0.0000000000       6.8114487475
K Ti
3 1
direct
   0.7500000000000000    0.2500000000000000    0.5000000000000000 K
   0.2500000000000000    0.7500000000000000    0.5000000000000000 K
   0.5000000000000000    0.5000000000000000    0.0000000000000000 K
   0.0000000000000000    0.0000000000000000    0.0000000000000000 Ti
