K3 Ti1
1.0
      4.3468383452       0.0000000000      -3.7424854403
     -0.9142111821       4.2496142782      -3.7424854403
      0.0000000000       0.0000000000       5.7359568400
K Ti
3 1
direct
   0.7500000000000000    0.2500000000000000    0.5000000000000000 K
   0.2500000000000000    0.7500000000000000    0.5000000000000000 K
   0.5000000000000000    0.5000000000000000    0.0000000000000000 K
   0.0000000000000000    0.0000000000000000    0.0000000000000000 Ti
