Li4 Al2
1.0
      4.2093522070       0.0000000000       0.0000000000
     -0.0000000000       3.9351953682      -1.8663704165
      0.0000000000       0.0000000000       5.0818168550
Li Al
4 2
direct
   0.2500000000000000    0.7586075000000000    0.5172150000000000 Li
   0.7500000000000000    0.2413925000000000    0.4827850000000000 Li
   0.2500000000000000    0.4101381900000000    0.8202763900000000 Li
   0.7500000000000000    0.5898618100000000    0.1797236100000000 Li
   0.2500000000000000    0.0749820500000000    0.1499640900000000 Al
   0.7500000000000000    0.9250179500000000    0.8500359100000000 Al
