Li3 Ac1
1.0
      4.1620823903       0.0000000000      -3.8565449337
     -0.7937500437       4.0856934162      -3.8565449337
      0.0000000000       0.0000000000       5.6741403445
Li Ac
3 1
direct
   0.7500000000000000    0.2500000000000000    0.5000000000000000 Li
   0.2500000000000000    0.7500000000000000    0.5000000000000000 Li
   0.5000000000000000    0.5000000000000000    0.0000000000000000 Li
   0.0000000000000000    0.0000000000000000    0.0000000000000000 Ac
