Li3 Ac1
1.0
      3.7239684544       0.0000000000      -3.4505928354
     -0.7101974076       3.6556204250      -3.4505928354
      0.0000000000       0.0000000000       5.0768624135
Li Ac
3 1
direct
   0.7500000000000000    0.2500000000000000    0.5000000000000000 Li
   0.2500000000000000    0.7500000000000000    0.5000000000000000 Li
   0.5000000000000000    0.5000000000000000    0.0000000000000000 Li
   0.0000000000000000    0.0000000000000000    0.0000000000000000 Ac
