Mn2 Ir2
1.0
      2.7436845150       0.0000000000       0.0000000000
     -0.0000000000       3.8491680690       0.0000000000
      0.0000000000       0.0000000000       3.8491680690
Mn Ir
2 2
direct
   0.5000000000000000    0.5000000000000000    0.0000000000000000 Mn
   0.5000000000000000    0.0000000000000000    0.5000000000000000 Mn
   0.0000000000000000    0.5000000000000000    0.5000000000000000 Ir
   0.0000000000000000    0.0000000000000000    0.0000000000000000 Ir
