Mn2 Ir2
1.0
      2.4388306800       0.0000000000       0.0000000000
     -0.0000000000       3.4214827280       0.0000000000
      0.0000000000       0.0000000000       3.4214827280
Mn Ir
2 2
direct
   0.5000000000000000    0.5000000000000000    0.0000000000000000 Mn
   0.5000000000000000    0.0000000000000000    0.5000000000000000 Mn
   0.0000000000000000    0.5000000000000000    0.5000000000000000 Ir
   0.0000000000000000    0.0000000000000000    0.0000000000000000 Ir
