Mn2 Ir2
1.0
      2.5912575975       0.0000000000       0.0000000000
     -0.0000000000       3.6353253985       0.0000000000
      0.0000000000       0.0000000000       3.6353253985
Mn Ir
2 2
direct
   0.5000000000000000    0.5000000000000000    0.0000000000000000 Mn
   0.5000000000000000    0.0000000000000000    0.5000000000000000 Mn
   0.0000000000000000    0.5000000000000000    0.5000000000000000 Ir
   0.0000000000000000    0.0000000000000000    0.0000000000000000 Ir
