Mn2 Ir2
1.0
      2.8961114325       0.0000000000       0.0000000000
     -0.0000000000       4.0630107395       0.0000000000
      0.0000000000       0.0000000000       4.0630107395
Mn Ir
2 2
direct
   0.5000000000000000    0.5000000000000000    0.0000000000000000 Mn
   0.5000000000000000    0.0000000000000000    0.5000000000000000 Mn
   0.0000000000000000    0.5000000000000000    0.5000000000000000 Ir
   0.0000000000000000    0.0000000000000000    0.0000000000000000 Ir
