Li2 Pd1
1.0
      3.9948603425       0.0000000000       0.0000000000
     -1.9974301736       3.4596502985       0.0000000000
      0.0000000000       0.0000000000       2.5458691565
Li Pd
2 1
direct
   0.3333333333333333    0.6666666666666666    0.5000000000000000 Li
   0.6666666666666666    0.3333333333333333    0.5000000000000000 Li
   0.0000000000000000    0.0000000000000000    0.0000000000000000 Pd
