Li2 Pd1
1.0
      3.1538371125       0.0000000000       0.0000000000
     -1.5769185581       2.7313028672       0.0000000000
      0.0000000000       0.0000000000       2.0098967025
Li Pd
2 1
direct
   0.3333333333333333    0.6666666666666666    0.5000000000000000 Li
   0.6666666666666666    0.3333333333333333    0.5000000000000000 Li
   0.0000000000000000    0.0000000000000000    0.0000000000000000 Pd
