Li2 Pd1
1.0
      3.5743487275       0.0000000000       0.0000000000
     -1.7871743659       3.0954765828       0.0000000000
      0.0000000000       0.0000000000       2.2778829295
Li Pd
2 1
direct
   0.3333333333333333    0.6666666666666666    0.5000000000000000 Li
   0.6666666666666666    0.3333333333333333    0.5000000000000000 Li
   0.0000000000000000    0.0000000000000000    0.0000000000000000 Pd
