K3 Pd1
1.0
      4.0837597500       0.0000000000       0.0000000000
     -0.0000000000       4.0837597500       0.0000000000
      0.0000000000       0.0000000000       4.0837597500
K Pd
3 1
direct
   0.5000000000000000    0.5000000000000000    0.0000000000000000 K
   0.5000000000000000    0.0000000000000000    0.5000000000000000 K
   0.0000000000000000    0.5000000000000000    0.5000000000000000 K
   0.0000000000000000    0.0000000000000000    0.0000000000000000 Pd
