K3 Pd1
1.0
      5.1727623500       0.0000000000       0.0000000000
     -0.0000000000       5.1727623500       0.0000000000
      0.0000000000       0.0000000000       5.1727623500
K Pd
3 1
direct
   0.5000000000000000    0.5000000000000000    0.0000000000000000 K
   0.5000000000000000    0.0000000000000000    0.5000000000000000 K
   0.0000000000000000    0.5000000000000000    0.5000000000000000 K
   0.0000000000000000    0.0000000000000000    0.0000000000000000 Pd
