K2 N2
1.0
      3.6881019000       0.0000000000       0.0000000000
     -0.0000000000       3.7006659000       0.0000000000
      0.0000000000       0.0000000000       5.2088643000
K N
2 2
direct
   0.2346230000000000    0.0000000000000000    0.0000000000000000 K
   0.7653770000000000    0.5000000000000000    0.5000000000000000 K
   0.2686930000000000    0.0000000000000000    0.5000000000000000 N
   0.7313070000000000    0.5000000000000000    0.0000000000000000 N
