K2 N2
1.0
      3.8929964500       0.0000000000       0.0000000000
     -0.0000000000       3.9062584500       0.0000000000
      0.0000000000       0.0000000000       5.4982456500
K N
2 2
direct
   0.2346230000000000    0.0000000000000000    0.0000000000000000 K
   0.7653770000000000    0.5000000000000000    0.5000000000000000 K
   0.2686930000000000    0.0000000000000000    0.5000000000000000 N
   0.7313070000000000    0.5000000000000000    0.0000000000000000 N
