Li3 Au1
1.0
      3.3000501444       0.0000000000      -2.7317733588
     -0.7301410214       3.2182642906      -2.7317733588
      0.0000000000       0.0000000000       4.2840304200
Li Au
3 1
direct
   0.7500000000000000    0.2500000000000000    0.5000000000000000 Li
   0.2500000000000000    0.7500000000000000    0.5000000000000000 Li
   0.5000000000000000    0.5000000000000000    0.0000000000000000 Li
   0.0000000000000000    0.0000000000000000    0.0000000000000000 Au
