Li3 Au1
1.0
      3.1167140253       0.0000000000      -2.5800081722
     -0.6895776314       3.0394718300      -2.5800081722
      0.0000000000       0.0000000000       4.0460287300
Li Au
3 1
direct
   0.7500000000000000    0.2500000000000000    0.5000000000000000 Li
   0.2500000000000000    0.7500000000000000    0.5000000000000000 Li
   0.5000000000000000    0.5000000000000000    0.0000000000000000 Li
   0.0000000000000000    0.0000000000000000    0.0000000000000000 Au
