Li3 N1
1.0
      3.4292408115       0.0000000000       0.0000000000
     -1.7146208855       2.9698098861       0.0000000000
      0.0000000000       0.0000000000       3.6619066795
Li N
3 1
direct
   0.0000000000000000    0.0000000000000000    0.5000000000000000 Li
   0.3333333333333333    0.6666666666666666    0.0000000000000000 Li
   0.6666666666666666    0.3333333333333333    0.0000000000000000 Li
   0.0000000000000000    0.0000000000000000    0.0000000000000000 N
