Mn1 Rh1
1.0
      2.5733662025       0.0000000000       0.0000000000
     -0.0000000000       2.5733662025       0.0000000000
      0.0000000000       0.0000000000       2.5733662025
Mn Rh
1 1
direct
   0.0000000000000000    0.0000000000000000    0.0000000000000000 Mn
   0.5000000000000000    0.5000000000000000    0.5000000000000000 Rh
