Mn1 Rh1
1.0
      2.2706172375       0.0000000000       0.0000000000
     -0.0000000000       2.2706172375       0.0000000000
      0.0000000000       0.0000000000       2.2706172375
Mn Rh
1 1
direct
   0.0000000000000000    0.0000000000000000    0.0000000000000000 Mn
   0.5000000000000000    0.5000000000000000    0.5000000000000000 Rh
