Lu1 Zn1
1.0
      2.5918412775       0.0000000000       0.0000000000
     -0.0000000000       2.5918412775       0.0000000000
      0.0000000000       0.0000000000       2.5918412775
Lu Zn
1 1
direct
   0.0000000000000000    0.0000000000000000    0.0000000000000000 Lu
   0.5000000000000000    0.5000000000000000    0.5000000000000000 Zn
