Li1 Ag3
1.0
      3.2361020320       0.0000000000       0.0000000000
     -0.0000000000       3.2361020320       0.0000000000
      0.0000000000       0.0000000000       3.2361020320
Li Ag
1 3
direct
   0.0000000000000000    0.0000000000000000    0.0000000000000000 Li
   0.0000000000000000    0.5000000000000000    0.5000000000000000 Ag
   0.5000000000000000    0.0000000000000000    0.5000000000000000 Ag
   0.5000000000000000    0.5000000000000000    0.0000000000000000 Ag
