Cu2 As4
1.0
      3.6216255671       0.0000000000       2.1957122877
      1.8108131931       3.4928263983       1.0978557541
      0.0000000000       0.0000000000       4.0846254240
Cu As
2 4
direct
   0.2500000000000000    0.0000000000000000    0.0000000000000000 Cu
   0.7500000000000000    0.0000000000000000    0.0000000000000000 Cu
   0.1478260000000000    0.5000000000000000    0.2043480000000000 As
   0.3521740000000000    0.7956520000000000    0.5000000000000000 As
   0.6478260000000000    0.2043480000000000    0.5000000000000000 As
   0.8521740000000000    0.5000000000000000    0.7956520000000000 As
