Cu2 As4
1.0
      3.8479771650       0.0000000000       2.3329443057
      1.9239890177       3.7111280482       1.1664717387
      0.0000000000       0.0000000000       4.3399145130
Cu As
2 4
direct
   0.2500000000000000    0.0000000000000000    0.0000000000000000 Cu
   0.7500000000000000    0.0000000000000000    0.0000000000000000 Cu
   0.1478260000000000    0.5000000000000000    0.2043480000000000 As
   0.3521740000000000    0.7956520000000000    0.5000000000000000 As
   0.6478260000000000    0.2043480000000000    0.5000000000000000 As
   0.8521740000000000    0.5000000000000000    0.7956520000000000 As
