Cu2 As4
1.0
      4.3006803609       0.0000000000       2.6074083416
      2.1503406668       4.1477313480       1.3037037080
      0.0000000000       0.0000000000       4.8504926910
Cu As
2 4
direct
   0.2500000000000000    0.0000000000000000    0.0000000000000000 Cu
   0.7500000000000000    0.0000000000000000    0.0000000000000000 Cu
   0.1478260000000000    0.5000000000000000    0.2043480000000000 As
   0.3521740000000000    0.7956520000000000    0.5000000000000000 As
   0.6478260000000000    0.2043480000000000    0.5000000000000000 As
   0.8521740000000000    0.5000000000000000    0.7956520000000000 As
