Cu2 As4
1.0
      4.0743287630       0.0000000000       2.4701763237
      2.0371648422       3.9294296981       1.2350877234
      0.0000000000       0.0000000000       4.5952036020
Cu As
2 4
direct
   0.2500000000000000    0.0000000000000000    0.0000000000000000 Cu
   0.7500000000000000    0.0000000000000000    0.0000000000000000 Cu
   0.1478260000000000    0.5000000000000000    0.2043480000000000 As
   0.3521740000000000    0.7956520000000000    0.5000000000000000 As
   0.6478260000000000    0.2043480000000000    0.5000000000000000 As
   0.8521740000000000    0.5000000000000000    0.7956520000000000 As
