Cu2 As4
1.0
      3.3952739691       0.0000000000       2.0584802697
      1.6976373685       3.2745247484       1.0292397695
      0.0000000000       0.0000000000       3.8293363350
Cu As
2 4
direct
   0.2500000000000000    0.0000000000000000    0.0000000000000000 Cu
   0.7500000000000000    0.0000000000000000    0.0000000000000000 Cu
   0.1478260000000000    0.5000000000000000    0.2043480000000000 As
   0.3521740000000000    0.7956520000000000    0.5000000000000000 As
   0.6478260000000000    0.2043480000000000    0.5000000000000000 As
   0.8521740000000000    0.5000000000000000    0.7956520000000000 As
