Li1 Pb3
1.0
      6.2622709260       0.0000000000       0.0000000000
     -3.1311353788       3.1300297603       0.0000000000
      0.0000000000       0.0000000000       4.3539609500
Li Pb
1 3
direct
   0.0000000000000000    0.0000000000000000    0.0000000000000000 Li
   0.0000000000000000    0.0000000000000000    0.5000000000000000 Pb
   0.5000000000000000    0.5000000000000000    0.0000000000000000 Pb
   0.0000000000000000    0.5000000000000000    0.0000000000000000 Pb
