Li1 Pb3
1.0
      6.9990086820       0.0000000000       0.0000000000
     -3.4995042469       3.4982685556       0.0000000000
      0.0000000000       0.0000000000       4.8661916500
Li Pb
1 3
direct
   0.0000000000000000    0.0000000000000000    0.0000000000000000 Li
   0.0000000000000000    0.0000000000000000    0.5000000000000000 Pb
   0.5000000000000000    0.5000000000000000    0.0000000000000000 Pb
   0.0000000000000000    0.5000000000000000    0.0000000000000000 Pb
