Li1 Pb3
1.0
      5.5255331700       0.0000000000       0.0000000000
     -2.7627665107       2.7617909649       0.0000000000
      0.0000000000       0.0000000000       3.8417302500
Li Pb
1 3
direct
   0.0000000000000000    0.0000000000000000    0.0000000000000000 Li
   0.0000000000000000    0.0000000000000000    0.5000000000000000 Pb
   0.5000000000000000    0.5000000000000000    0.0000000000000000 Pb
   0.0000000000000000    0.5000000000000000    0.0000000000000000 Pb
