Li1 Pb3
1.0
      6.6306398040       0.0000000000       0.0000000000
     -3.3153198129       3.3141491579       0.0000000000
      0.0000000000       0.0000000000       4.6100763000
Li Pb
1 3
direct
   0.0000000000000000    0.0000000000000000    0.0000000000000000 Li
   0.0000000000000000    0.0000000000000000    0.5000000000000000 Pb
   0.5000000000000000    0.5000000000000000    0.0000000000000000 Pb
   0.0000000000000000    0.5000000000000000    0.0000000000000000 Pb
