Li1 Pb3
1.0
      5.8939020480       0.0000000000       0.0000000000
     -2.9469509448       2.9459103626       0.0000000000
      0.0000000000       0.0000000000       4.0978456000
Li Pb
1 3
direct
   0.0000000000000000    0.0000000000000000    0.0000000000000000 Li
   0.0000000000000000    0.0000000000000000    0.5000000000000000 Pb
   0.5000000000000000    0.5000000000000000    0.0000000000000000 Pb
   0.0000000000000000    0.5000000000000000    0.0000000000000000 Pb
