Y4 Cu8
1.0
      4.2178398160       0.0000000000       0.0000000000
     -2.0933727770       3.6616885627       0.0000000000
      0.0000000000       0.0000000000       6.7259136000
Y Cu
4 8
direct
   0.6667980000000000    0.3332020000000000    0.5575690000000000 Y
   0.3332020000000000    0.6667980000000000    0.4424310000000000 Y
   0.3332020000000000    0.6667980000000000    0.0575690000000000 Y
   0.6667980000000000    0.3332020000000000    0.9424310000000000 Y
   0.0000000000000000    0.0000000000000000    0.5000000000000000 Cu
   0.0000000000000000    0.0000000000000000    0.0000000000000000 Cu
   0.1653990000000000    0.3312980000000000    0.7500000000000000 Cu
   0.1654780000000000    0.8345220000000000    0.7500000000000000 Cu
   0.6687020000000000    0.8346010000000000    0.7500000000000000 Cu
   0.8346010000000000    0.6687020000000000    0.2500000000000000 Cu
   0.8345220000000000    0.1654780000000000    0.2500000000000000 Cu
   0.3312980000000000    0.1653990000000000    0.2500000000000000 Cu
