Ti2 Zn1
1.0
      2.1849668971       0.0000000000      -0.5996920391
     -0.1645930728       2.1787579443      -0.5996918285
      0.0000000000       0.0000000000       4.2802835850
Ti Zn
2 1
direct
   0.6637404800000000    0.6637404800000000    0.3274799700000000 Ti
   0.3362595200000000    0.3362595200000000    0.6725200300000000 Ti
   0.0000000000000000    0.0000000000000000    0.0000000000000000 Zn
