Ti2 Zn1
1.0
      2.4762958168       0.0000000000      -0.6796509777
     -0.1865388158       2.4692590036      -0.6796507389
      0.0000000000       0.0000000000       4.8509880630
Ti Zn
2 1
direct
   0.6637404800000000    0.6637404800000000    0.3274799700000000 Ti
   0.3362595200000000    0.3362595200000000    0.6725200300000000 Ti
   0.0000000000000000    0.0000000000000000    0.0000000000000000 Zn
