Ti2 Zn1
1.0
      2.3306313569       0.0000000000      -0.6396715084
     -0.1755659443       2.3240084740      -0.6396712837
      0.0000000000       0.0000000000       4.5656358240
Ti Zn
2 1
direct
   0.6637404800000000    0.6637404800000000    0.3274799700000000 Ti
   0.3362595200000000    0.3362595200000000    0.6725200300000000 Ti
   0.0000000000000000    0.0000000000000000    0.0000000000000000 Zn
