Ti2 Zn1
1.0
      2.7676247364       0.0000000000      -0.7596099162
     -0.2084845588       2.7597600628      -0.7596096494
      0.0000000000       0.0000000000       5.4216925410
Ti Zn
2 1
direct
   0.6637404800000000    0.6637404800000000    0.3274799700000000 Ti
   0.3362595200000000    0.3362595200000000    0.6725200300000000 Ti
   0.0000000000000000    0.0000000000000000    0.0000000000000000 Zn
