Sr3 Li1
1.0
      4.1383295743       0.0000000000      -4.0704279725
     -0.7267627964       4.0740136847      -4.0704279725
      0.0000000000       0.0000000000       5.8046667040
Sr Li
3 1
direct
   0.7500000000000000    0.2500000000000000    0.5000000000000000 Sr
   0.2500000000000000    0.7500000000000000    0.5000000000000000 Sr
   0.5000000000000000    0.5000000000000000    0.0000000000000000 Sr
   0.0000000000000000    0.0000000000000000    0.0000000000000000 Li
