Sr3 Li1
1.0
      4.3969751727       0.0000000000      -4.3248297207
     -0.7721854711       4.3286395400      -4.3248297207
      0.0000000000       0.0000000000       6.1674583730
Sr Li
3 1
direct
   0.7500000000000000    0.2500000000000000    0.5000000000000000 Sr
   0.2500000000000000    0.7500000000000000    0.5000000000000000 Sr
   0.5000000000000000    0.5000000000000000    0.0000000000000000 Sr
   0.0000000000000000    0.0000000000000000    0.0000000000000000 Li
