Sr3 Li1
1.0
      4.6556207711       0.0000000000      -4.5792314690
     -0.8176081459       4.5832653953      -4.5792314690
      0.0000000000       0.0000000000       6.5302500420
Sr Li
3 1
direct
   0.7500000000000000    0.2500000000000000    0.5000000000000000 Sr
   0.2500000000000000    0.7500000000000000    0.5000000000000000 Sr
   0.5000000000000000    0.5000000000000000    0.0000000000000000 Sr
   0.0000000000000000    0.0000000000000000    0.0000000000000000 Li
