Sr3 Li1
1.0
      3.8796839759       0.0000000000      -3.8160262242
     -0.6813401216       3.8193878294      -3.8160262242
      0.0000000000       0.0000000000       5.4418750350
Sr Li
3 1
direct
   0.7500000000000000    0.2500000000000000    0.5000000000000000 Sr
   0.2500000000000000    0.7500000000000000    0.5000000000000000 Sr
   0.5000000000000000    0.5000000000000000    0.0000000000000000 Sr
   0.0000000000000000    0.0000000000000000    0.0000000000000000 Li
