Sr3 Li1
1.0
      4.9142663695       0.0000000000      -4.8336332173
     -0.8630308207       4.8378912506      -4.8336332173
      0.0000000000       0.0000000000       6.8930417110
Sr Li
3 1
direct
   0.7500000000000000    0.2500000000000000    0.5000000000000000 Sr
   0.2500000000000000    0.7500000000000000    0.5000000000000000 Sr
   0.5000000000000000    0.5000000000000000    0.0000000000000000 Sr
   0.0000000000000000    0.0000000000000000    0.0000000000000000 Li
