Ca6 Mg6
1.0
      4.3951080640       0.0000000000       0.0000000000
     -0.0000000000       4.4043180880       0.0000000000
      0.0000000000       0.0000000000       9.9431315520
Ca Mg
6 6
direct
   0.0000000000000000    0.5000000000000000    0.1793962700000000 Ca
   0.5000000000000000    0.5000000000000000    0.3779112900000000 Ca
   0.5000000000000000    0.0000000000000000    0.1891535300000000 Ca
   0.0000000000000000    0.0000000000000000    0.6793962700000000 Ca
   0.5000000000000000    0.0000000000000000    0.8779112900000000 Ca
   0.5000000000000000    0.5000000000000000    0.6891535300000000 Ca
   0.0000000000000000    0.5000000000000000    0.5160533500000000 Mg
   0.0000000000000000    0.0000000000000000    0.3811505900000000 Mg
   0.5000000000000000    0.5000000000000000    0.0230019800000000 Mg
   0.0000000000000000    0.0000000000000000    0.0160533500000000 Mg
   0.0000000000000000    0.5000000000000000    0.8811505900000000 Mg
   0.5000000000000000    0.0000000000000000    0.5230019800000000 Mg
