Ce2 Zn4
1.0
      4.2240858256       0.0000000000      -0.8138362672
     -1.1133764866       2.9536193285      -2.9513543617
      0.0000000000       0.0000000000       4.3304900850
Ce Zn
2 4
direct
   0.2830482500000000    0.5336126900000000    0.7494958000000000 Ce
   0.7169186700000000    0.4663805300000000    0.2505428500000000 Ce
   0.1093886300000000    0.1644197600000000    0.9430818100000000 Zn
   0.8906832800000000    0.8355844400000000    0.0569483700000000 Zn
   0.2808566400000000    0.8356497300000000    0.4463675300000000 Zn
   0.7191045300000000    0.1643528500000000    0.5535636300000000 Zn
