K3 Mg1
1.0
      5.1216053000       0.0000000000       0.0000000000
     -0.0000000000       5.1216053000       0.0000000000
      0.0000000000       0.0000000000       5.1216053000
K Mg
3 1
direct
   0.5000000000000000    0.5000000000000000    0.0000000000000000 K
   0.5000000000000000    0.0000000000000000    0.5000000000000000 K
   0.0000000000000000    0.5000000000000000    0.5000000000000000 K
   0.0000000000000000    0.0000000000000000    0.0000000000000000 Mg
