Li1 Mg5
1.0
      5.2147838208       0.0000000000       1.3028581384
      4.4430262546       2.7301076899       1.3028581384
      0.0000000000       0.0000000000       6.7311983430
Li Mg
1 5
direct
   0.6107648200000000    0.6107648200000000    0.2790522200000000 Li
   0.0017131600000000    0.0017131600000000    0.0047650800000000 Mg
   0.3312788800000000    0.3312788800000000    0.3318478500000000 Mg
   0.9461629200000000    0.9461629200000000    0.6058106000000000 Mg
   0.6660573100000000    0.6660573100000000    0.6652301400000000 Mg
   0.2773569100000000    0.2773569100000000    0.9466281100000000 Mg
