Na2 Li6
1.0
      5.2361400160       0.0000000000       0.0000000000
     -2.6180706784       4.5346298846       0.0000000000
      0.0000000000       0.0000000000       4.3151737840
Na Li
2 6
direct
   0.6666666666666666    0.3333333333333333    0.2500000000000000 Na
   0.3333333333333333    0.6666666666666666    0.7500000000000000 Na
   0.8401613000000000    0.1598387000000000    0.7500000000000000 Li
   0.3196763900000000    0.1598387000000000    0.7500000000000000 Li
   0.8401613000000000    0.6803236100000000    0.7500000000000000 Li
   0.1598387000000000    0.8401613000000000    0.2500000000000000 Li
   0.6803236100000000    0.8401613000000000    0.2500000000000000 Li
   0.1598387000000000    0.3196763900000000    0.2500000000000000 Li
