Li3 Ag1
1.0
      3.7254932522       0.0000000000       2.1509145320
      1.2418310841       3.5124287225       2.1509145320
      0.0000000000       0.0000000000       4.3018290640
Li Ag
3 1
direct
   0.0000000000000000    0.0000000000000000    0.0000000000000000 Li
   0.4999990000000000    0.4999990000000000    0.4999990000000000 Li
   0.2500000000000000    0.2500000000000000    0.2500000000000000 Li
   0.7500000000000000    0.7500000000000000    0.7500000000000000 Ag
