Li3 Ag1
1.0
      3.1372574755       0.0000000000       1.8112964480
      1.0457524918       2.9578347137       1.8112964480
      0.0000000000       0.0000000000       3.6225928960
Li Ag
3 1
direct
   0.0000000000000000    0.0000000000000000    0.0000000000000000 Li
   0.4999990000000000    0.4999990000000000    0.4999990000000000 Li
   0.2500000000000000    0.2500000000000000    0.2500000000000000 Li
   0.7500000000000000    0.7500000000000000    0.7500000000000000 Ag
