Li3 Ag1
1.0
      2.9411788833       0.0000000000       1.6980904200
      0.9803929611       2.7729700441       1.6980904200
      0.0000000000       0.0000000000       3.3961808400
Li Ag
3 1
direct
   0.0000000000000000    0.0000000000000000    0.0000000000000000 Li
   0.4999990000000000    0.4999990000000000    0.4999990000000000 Li
   0.2500000000000000    0.2500000000000000    0.2500000000000000 Li
   0.7500000000000000    0.7500000000000000    0.7500000000000000 Ag
