Li3 Sb1
1.0
      3.0059479877       0.0000000000       1.7354841754
      1.0019824116       2.8340345901       1.7354841738
      0.0000000000       0.0000000000       3.4709691150
Li Sb
3 1
direct
   0.5000000000000000    0.5000000000000000    0.5000000000000000 Li
   0.2500000000000000    0.2500000000000000    0.2500000000000000 Li
   0.7500000000000000    0.7500000000000000    0.7500000000000000 Li
   0.0000000000000000    0.0000000000000000    0.0000000000000000 Sb
