K4 S2
1.0
      4.5072981280       0.0000000000       0.0000000000
     -2.2536487894       3.9034348398       0.0000000000
      0.0000000000       0.0000000000       6.1998005500
K S
4 2
direct
   0.3333333333333333    0.6666666666666666    0.2500000000000000 K
   0.0000000000000000    0.0000000000000000    0.5000000000000000 K
   0.0000000000000000    0.0000000000000000    0.0000000000000000 K
   0.6666666666666666    0.3333333333333333    0.7500000000000000 K
   0.6666666666666666    0.3333333333333333    0.2500000000000000 S
   0.3333333333333333    0.6666666666666666    0.7500000000000000 S
