K4 S2
1.0
      4.2421629440       0.0000000000       0.0000000000
     -2.1210812136       3.6738210257       0.0000000000
      0.0000000000       0.0000000000       5.8351064000
K S
4 2
direct
   0.3333333333333333    0.6666666666666666    0.2500000000000000 K
   0.0000000000000000    0.0000000000000000    0.5000000000000000 K
   0.0000000000000000    0.0000000000000000    0.0000000000000000 K
   0.6666666666666666    0.3333333333333333    0.7500000000000000 K
   0.6666666666666666    0.3333333333333333    0.2500000000000000 S
   0.3333333333333333    0.6666666666666666    0.7500000000000000 S
