K4 S2
1.0
      3.9770277600       0.0000000000       0.0000000000
     -1.9885136377       3.4442072116       0.0000000000
      0.0000000000       0.0000000000       5.4704122500
K S
4 2
direct
   0.3333333333333333    0.6666666666666666    0.2500000000000000 K
   0.0000000000000000    0.0000000000000000    0.5000000000000000 K
   0.0000000000000000    0.0000000000000000    0.0000000000000000 K
   0.6666666666666666    0.3333333333333333    0.7500000000000000 K
   0.6666666666666666    0.3333333333333333    0.2500000000000000 S
   0.3333333333333333    0.6666666666666666    0.7500000000000000 S
