K4 S2
1.0
      4.7724333120       0.0000000000       0.0000000000
     -2.3862163653       4.1330486539       0.0000000000
      0.0000000000       0.0000000000       6.5644947000
K S
4 2
direct
   0.3333333333333333    0.6666666666666666    0.2500000000000000 K
   0.0000000000000000    0.0000000000000000    0.5000000000000000 K
   0.0000000000000000    0.0000000000000000    0.0000000000000000 K
   0.6666666666666666    0.3333333333333333    0.7500000000000000 K
   0.6666666666666666    0.3333333333333333    0.2500000000000000 S
   0.3333333333333333    0.6666666666666666    0.7500000000000000 S
