Cu2 I2
1.0
      3.1560023319       0.0000000000       4.4714537887
      1.4190672819       2.8189712252       4.4714537887
      0.0000000000       0.0000000000       5.4730474275
Cu I
2 2
direct
   0.1229850000000000    0.1229850000000000    0.1229850000000000 Cu
   0.8770150000000000    0.8770150000000000    0.8770150000000000 Cu
   0.0000000000000000    0.0000000000000000    0.0000000000000000 I
   0.5000000000000000    0.5000000000000000    0.5000000000000000 I
