Cu2 I2
1.0
      3.5768026429       0.0000000000       5.0676476272
      1.6082762529       3.1948340552       5.0676476272
      0.0000000000       0.0000000000       6.2027870845
Cu I
2 2
direct
   0.1229850000000000    0.1229850000000000    0.1229850000000000 Cu
   0.8770150000000000    0.8770150000000000    0.8770150000000000 Cu
   0.0000000000000000    0.0000000000000000    0.0000000000000000 I
   0.5000000000000000    0.5000000000000000    0.5000000000000000 I
