Cu2 I2
1.0
      3.3664024874       0.0000000000       4.7695507079
      1.5136717674       3.0069026402       4.7695507079
      0.0000000000       0.0000000000       5.8379172560
Cu I
2 2
direct
   0.1229850000000000    0.1229850000000000    0.1229850000000000 Cu
   0.8770150000000000    0.8770150000000000    0.8770150000000000 Cu
   0.0000000000000000    0.0000000000000000    0.0000000000000000 I
   0.5000000000000000    0.5000000000000000    0.5000000000000000 I
