Cu2 I2
1.0
      3.7872027983       0.0000000000       5.3657445464
      1.7028807383       3.3827654702       5.3657445464
      0.0000000000       0.0000000000       6.5676569130
Cu I
2 2
direct
   0.1229850000000000    0.1229850000000000    0.1229850000000000 Cu
   0.8770150000000000    0.8770150000000000    0.8770150000000000 Cu
   0.0000000000000000    0.0000000000000000    0.0000000000000000 I
   0.5000000000000000    0.5000000000000000    0.5000000000000000 I
