Cu2 I2
1.0
      3.9976029538       0.0000000000       5.6638414657
      1.7974852238       3.5706968853       5.6638414657
      0.0000000000       0.0000000000       6.9325267415
Cu I
2 2
direct
   0.1229850000000000    0.1229850000000000    0.1229850000000000 Cu
   0.8770150000000000    0.8770150000000000    0.8770150000000000 Cu
   0.0000000000000000    0.0000000000000000    0.0000000000000000 I
   0.5000000000000000    0.5000000000000000    0.5000000000000000 I
