Li3 Yb1
1.0
      3.4753356482       0.0000000000       2.0064859720
      1.1584452161       3.2765778716       2.0064859720
      0.0000000000       0.0000000000       4.0129719440
Li Yb
3 1
direct
   0.2500000000000000    0.2500000000000000    0.2500000000000000 Li
   0.7500000000000000    0.7500000000000000    0.7500000000000000 Li
   0.5000000000000000    0.5000000000000000    0.5000000000000000 Li
   0.0000000000000000    0.0000000000000000    0.0000000000000000 Yb
