Li3 Yb1
1.0
      3.2581271702       0.0000000000       1.8810805988
      1.0860423901       3.0717917547       1.8810805988
      0.0000000000       0.0000000000       3.7621611975
Li Yb
3 1
direct
   0.2500000000000000    0.2500000000000000    0.2500000000000000 Li
   0.7500000000000000    0.7500000000000000    0.7500000000000000 Li
   0.5000000000000000    0.5000000000000000    0.5000000000000000 Li
   0.0000000000000000    0.0000000000000000    0.0000000000000000 Yb
