Li3 Yb1
1.0
      3.9097526042       0.0000000000       2.2572967185
      1.3032508681       3.6861501056       2.2572967185
      0.0000000000       0.0000000000       4.5145934370
Li Yb
3 1
direct
   0.2500000000000000    0.2500000000000000    0.2500000000000000 Li
   0.7500000000000000    0.7500000000000000    0.7500000000000000 Li
   0.5000000000000000    0.5000000000000000    0.5000000000000000 Li
   0.0000000000000000    0.0000000000000000    0.0000000000000000 Yb
