K2 C4
1.0
      4.0177908000       0.0000000000       0.0000000000
     -2.0088954016       3.5044130976      -1.1817048489
      0.0000000000       0.0000000000       7.4500197480
K C
2 4
direct
   0.7839290000000000    0.5678590000000000    0.7516210000000000 K
   0.2160710000000000    0.4321410000000000    0.2483790000000000 K
   0.9279020000000000    0.8558040000000000    0.4425590000000000 C
   0.0720980000000000    0.1441960000000000    0.5574410000000000 C
   0.5358640000000000    0.0717290000000000    0.9427700000000000 C
   0.4641360000000000    0.9282710000000000    0.0572300000000000 C
