Mn4 O8
1.0
      4.3314520583       0.0000000000       2.6555550478
      1.4868192483       4.0682730312       2.6555550478
      0.0000000000       0.0000000000       5.0806936525
Mn O
4 8
direct
   0.2455830000000000    0.2455830000000000    0.2455830000000000 Mn
   0.6276020000000000    0.1168230000000000    0.6276020000000000 Mn
   0.6276020000000000    0.6276020000000000    0.1168230000000000 Mn
   0.1168230000000000    0.6276020000000000    0.6276020000000000 Mn
   0.8381950000000000    0.3728720000000000    0.3728720000000000 O
   0.3728720000000000    0.3728720000000000    0.8381950000000000 O
   0.3728720000000000    0.8381950000000000    0.3728720000000000 O
   0.3860780000000000    0.3860780000000000    0.3860780000000000 O
   0.8608710000000001    0.8608710000000001    0.8608710000000001 O
   0.8762180000000001    0.4216210000000000    0.8762180000000001 O
   0.8762180000000001    0.8762180000000001    0.4216210000000000 O
   0.4216210000000000    0.8762180000000001    0.8762180000000001 O
