Mn4 O8
1.0
      4.0766607608       0.0000000000       2.4993459273
      1.3993592925       3.8289628529       2.4993459273
      0.0000000000       0.0000000000       4.7818293200
Mn O
4 8
direct
   0.2455830000000000    0.2455830000000000    0.2455830000000000 Mn
   0.6276020000000000    0.1168230000000000    0.6276020000000000 Mn
   0.6276020000000000    0.6276020000000000    0.1168230000000000 Mn
   0.1168230000000000    0.6276020000000000    0.6276020000000000 Mn
   0.8381950000000000    0.3728720000000000    0.3728720000000000 O
   0.3728720000000000    0.3728720000000000    0.8381950000000000 O
   0.3728720000000000    0.8381950000000000    0.3728720000000000 O
   0.3860780000000000    0.3860780000000000    0.3860780000000000 O
   0.8608710000000001    0.8608710000000001    0.8608710000000001 O
   0.8762180000000001    0.4216210000000000    0.8762180000000001 O
   0.8762180000000001    0.8762180000000001    0.4216210000000000 O
   0.4216210000000000    0.8762180000000001    0.8762180000000001 O
