Mn4 O8
1.0
      3.8218694632       0.0000000000       2.3431368069
      1.3118993367       3.5896526746       2.3431368069
      0.0000000000       0.0000000000       4.4829649875
Mn O
4 8
direct
   0.2455830000000000    0.2455830000000000    0.2455830000000000 Mn
   0.6276020000000000    0.1168230000000000    0.6276020000000000 Mn
   0.6276020000000000    0.6276020000000000    0.1168230000000000 Mn
   0.1168230000000000    0.6276020000000000    0.6276020000000000 Mn
   0.8381950000000000    0.3728720000000000    0.3728720000000000 O
   0.3728720000000000    0.3728720000000000    0.8381950000000000 O
   0.3728720000000000    0.8381950000000000    0.3728720000000000 O
   0.3860780000000000    0.3860780000000000    0.3860780000000000 O
   0.8608710000000001    0.8608710000000001    0.8608710000000001 O
   0.8762180000000001    0.4216210000000000    0.8762180000000001 O
   0.8762180000000001    0.8762180000000001    0.4216210000000000 O
   0.4216210000000000    0.8762180000000001    0.8762180000000001 O
