Mn2 Se2
1.0
      3.4734326400       0.0000000000       0.0000000000
     -1.7367159593       3.0080811128       0.0000000000
      0.0000000000       0.0000000000       5.3751699000
Mn Se
2 2
direct
   0.0000000000000000    0.0000000000000000    0.0000000000000000 Mn
   0.0000000000000000    0.0000000000000000    0.5000000000000000 Mn
   0.3333333333333333    0.6666666666666666    0.7500000000000000 Se
   0.6666666666666666    0.3333333333333333    0.2500000000000000 Se
