Mn2 Se2
1.0
      3.6664011200       0.0000000000       0.0000000000
     -1.8332001793       3.1751967302       0.0000000000
      0.0000000000       0.0000000000       5.6737904500
Mn Se
2 2
direct
   0.0000000000000000    0.0000000000000000    0.0000000000000000 Mn
   0.0000000000000000    0.0000000000000000    0.5000000000000000 Mn
   0.3333333333333333    0.6666666666666666    0.7500000000000000 Se
   0.6666666666666666    0.3333333333333333    0.2500000000000000 Se
