Li1 N1
1.0
      2.1402002041       0.0000000000      -1.2186462856
     -0.6939064703       2.0245865563      -1.2186462856
      0.0000000000       0.0000000000       2.4886448850
Li N
1 1
direct
   0.5000000000000000    0.5000000000000000    0.0000000000000000 Li
   0.7500000000000000    0.2500000000000000    0.5000000000000000 N
