Mn1 Zn3
1.0
      2.4344323467       0.0000000000       7.7852390089
      1.1888329599       2.1244145180       7.7852390089
      0.0000000000       0.0000000000       8.1569858670
Mn Zn
1 3
direct
   0.0000000000000000    0.0000000000000000    0.0000000000000000 Mn
   0.2531520000000000    0.2531520000000000    0.2531520000000000 Zn
   0.5000000000000000    0.5000000000000000    0.5000000000000000 Zn
   0.7468480000000000    0.7468480000000000    0.7468480000000000 Zn
