Mn1 Zn3
1.0
      2.2991861052       0.0000000000       7.3527257306
      1.1227866844       2.0063914892       7.3527257306
      0.0000000000       0.0000000000       7.7038199855
Mn Zn
1 3
direct
   0.0000000000000000    0.0000000000000000    0.0000000000000000 Mn
   0.2531520000000000    0.2531520000000000    0.2531520000000000 Zn
   0.5000000000000000    0.5000000000000000    0.5000000000000000 Zn
   0.7468480000000000    0.7468480000000000    0.7468480000000000 Zn
