Mn1 Zn3
1.0
      2.1639398637       0.0000000000       6.9202124523
      1.0567404088       1.8883684604       6.9202124523
      0.0000000000       0.0000000000       7.2506541040
Mn Zn
1 3
direct
   0.0000000000000000    0.0000000000000000    0.0000000000000000 Mn
   0.2531520000000000    0.2531520000000000    0.2531520000000000 Zn
   0.5000000000000000    0.5000000000000000    0.5000000000000000 Zn
   0.7468480000000000    0.7468480000000000    0.7468480000000000 Zn
