Mn1 Zn3
1.0
      2.5696785882       0.0000000000       8.2177522871
      1.2548792355       2.2424375467       8.2177522871
      0.0000000000       0.0000000000       8.6101517485
Mn Zn
1 3
direct
   0.0000000000000000    0.0000000000000000    0.0000000000000000 Mn
   0.2531520000000000    0.2531520000000000    0.2531520000000000 Zn
   0.5000000000000000    0.5000000000000000    0.5000000000000000 Zn
   0.7468480000000000    0.7468480000000000    0.7468480000000000 Zn
