Mn1 Zn3
1.0
      2.0286936223       0.0000000000       6.4876991740
      0.9906941333       1.7703454316       6.4876991740
      0.0000000000       0.0000000000       6.7974882225
Mn Zn
1 3
direct
   0.0000000000000000    0.0000000000000000    0.0000000000000000 Mn
   0.2531520000000000    0.2531520000000000    0.2531520000000000 Zn
   0.5000000000000000    0.5000000000000000    0.5000000000000000 Zn
   0.7468480000000000    0.7468480000000000    0.7468480000000000 Zn
