Cu1 Ni3
1.0
      2.0638373830       0.0000000000       0.0000000000
     -0.7009098031       1.9411723755       0.0000000000
      0.0000000000       0.0000000000       6.7446531000
Cu Ni
1 3
direct
   0.0000000000000000    0.0000000000000000    0.0000000000000000 Cu
   0.5000000000000000    0.5000000000000000    0.7453140000000000 Ni
   0.0000000000000000    0.0000000000000000    0.5000000000000000 Ni
   0.5000000000000000    0.5000000000000000    0.2546860000000000 Ni
