Cu1 Ni3
1.0
      1.8210329850       0.0000000000       0.0000000000
     -0.6184498263       1.7127991549       0.0000000000
      0.0000000000       0.0000000000       5.9511645000
Cu Ni
1 3
direct
   0.0000000000000000    0.0000000000000000    0.0000000000000000 Cu
   0.5000000000000000    0.5000000000000000    0.7453140000000000 Ni
   0.0000000000000000    0.0000000000000000    0.5000000000000000 Ni
   0.5000000000000000    0.5000000000000000    0.2546860000000000 Ni
