Cu1 Ni3
1.0
      2.1852395820       0.0000000000       0.0000000000
     -0.7421397915       2.0553589858       0.0000000000
      0.0000000000       0.0000000000       7.1413974000
Cu Ni
1 3
direct
   0.0000000000000000    0.0000000000000000    0.0000000000000000 Cu
   0.5000000000000000    0.5000000000000000    0.7453140000000000 Ni
   0.0000000000000000    0.0000000000000000    0.5000000000000000 Ni
   0.5000000000000000    0.5000000000000000    0.2546860000000000 Ni
