Cu1 Ni3
1.0
      1.9424351840       0.0000000000       0.0000000000
     -0.6596798147       1.8269857652       0.0000000000
      0.0000000000       0.0000000000       6.3479088000
Cu Ni
1 3
direct
   0.0000000000000000    0.0000000000000000    0.0000000000000000 Cu
   0.5000000000000000    0.5000000000000000    0.7453140000000000 Ni
   0.0000000000000000    0.0000000000000000    0.5000000000000000 Ni
   0.5000000000000000    0.5000000000000000    0.2546860000000000 Ni
