Na1 Cu3
1.0
      3.1334017208       0.0000000000      -2.8959916894
     -0.5996422573       3.0754894744      -2.8959916894
      0.0000000000       0.0000000000       4.2667287480
Na Cu
1 3
direct
   0.0000000000000000    0.0000000000000000    0.0000000000000000 Na
   0.7500000000000000    0.2500000000000000    0.5000000000000000 Cu
   0.2500000000000000    0.7500000000000000    0.5000000000000000 Cu
   0.5000000000000000    0.5000000000000000    0.0000000000000000 Cu
