Na1 Cu3
1.0
      2.7852459740       0.0000000000      -2.5742148351
     -0.5330153398       2.7337684217      -2.5742148351
      0.0000000000       0.0000000000       3.7926477760
Na Cu
1 3
direct
   0.0000000000000000    0.0000000000000000    0.0000000000000000 Na
   0.7500000000000000    0.2500000000000000    0.5000000000000000 Cu
   0.2500000000000000    0.7500000000000000    0.5000000000000000 Cu
   0.5000000000000000    0.5000000000000000    0.0000000000000000 Cu
