Na1 Cu3
1.0
      2.6111681006       0.0000000000      -2.4133264079
     -0.4997018810       2.5629078953      -2.4133264079
      0.0000000000       0.0000000000       3.5556072900
Na Cu
1 3
direct
   0.0000000000000000    0.0000000000000000    0.0000000000000000 Na
   0.7500000000000000    0.2500000000000000    0.5000000000000000 Cu
   0.2500000000000000    0.7500000000000000    0.5000000000000000 Cu
   0.5000000000000000    0.5000000000000000    0.0000000000000000 Cu
