Na1 Cu3
1.0
      2.9593238474       0.0000000000      -2.7351032623
     -0.5663287985       2.9046289480      -2.7351032623
      0.0000000000       0.0000000000       4.0296882620
Na Cu
1 3
direct
   0.0000000000000000    0.0000000000000000    0.0000000000000000 Na
   0.7500000000000000    0.2500000000000000    0.5000000000000000 Cu
   0.2500000000000000    0.7500000000000000    0.5000000000000000 Cu
   0.5000000000000000    0.5000000000000000    0.0000000000000000 Cu
