Na1 Cu3
1.0
      3.3074795941       0.0000000000      -3.0568801166
     -0.6329557160       3.2463500007      -3.0568801166
      0.0000000000       0.0000000000       4.5037692340
Na Cu
1 3
direct
   0.0000000000000000    0.0000000000000000    0.0000000000000000 Na
   0.7500000000000000    0.2500000000000000    0.5000000000000000 Cu
   0.2500000000000000    0.7500000000000000    0.5000000000000000 Cu
   0.5000000000000000    0.5000000000000000    0.0000000000000000 Cu
