Li3 Eu1
1.0
      4.5036948548       0.0000000000       2.6002094368
      1.5012316183       4.2461242296       2.6002094368
      0.0000000000       0.0000000000       5.2004188735
Li Eu
3 1
direct
   0.2500000000000000    0.2500000000000000    0.2500000000000000 Li
   0.7500000000000000    0.7500000000000000    0.7500000000000000 Li
   0.5000000000000000    0.5000000000000000    0.5000000000000000 Li
   0.0000000000000000    0.0000000000000000    0.0000000000000000 Eu
