Li8 Pt2
1.0
      5.5659761569       0.0000000000       3.2135178325
      1.8553253856       5.2476526460       3.2135178325
      0.0000000000       0.0000000000       6.4270356650
Li Pt
8 2
direct
   0.6080810000000000    0.6080810000000000    0.6080810000000000 Li
   0.1757560000000000    0.6080810000000000    0.6080810000000000 Li
   0.6080810000000000    0.1757560000000000    0.6080810000000000 Li
   0.5742440000000000    0.1419190000000000    0.1419190000000000 Li
   0.1419190000000000    0.1419190000000000    0.1419190000000000 Li
   0.6080810000000000    0.6080810000000000    0.1757560000000000 Li
   0.1419190000000000    0.5742440000000000    0.1419190000000000 Li
   0.1419190000000000    0.1419190000000000    0.5742440000000000 Li
   0.0000000000000000    0.0000000000000000    0.0000000000000000 Pt
   0.7500000000000000    0.7500000000000000    0.7500000000000000 Pt
