Ba3 Li1
1.0
      4.5751300098       0.0000000000      -4.6656094379
     -0.7634235889       4.5109864808      -4.6656094379
      0.0000000000       0.0000000000       6.5345027380
Ba Li
3 1
direct
   0.7500000000000000    0.2500000000000000    0.5000000000000000 Ba
   0.2500000000000000    0.7500000000000000    0.5000000000000000 Ba
   0.5000000000000000    0.5000000000000000    0.0000000000000000 Ba
   0.0000000000000000    0.0000000000000000    0.0000000000000000 Li
