Ba3 Li1
1.0
      4.8442553045       0.0000000000      -4.9400570518
     -0.8083308589       4.7763386268      -4.9400570518
      0.0000000000       0.0000000000       6.9188852520
Ba Li
3 1
direct
   0.7500000000000000    0.2500000000000000    0.5000000000000000 Ba
   0.2500000000000000    0.7500000000000000    0.5000000000000000 Ba
   0.5000000000000000    0.5000000000000000    0.0000000000000000 Ba
   0.0000000000000000    0.0000000000000000    0.0000000000000000 Li
