Lu6 Mn23
1.0
      6.8922247622       0.0000000000       3.9792278218
      2.2974082541       6.4980518224       3.9792278218
      0.0000000000       0.0000000000       7.9584556435
Lu Mn
6 23
direct
   0.7036850000000000    0.7036850000000000    0.2963150000000000 Lu
   0.2963150000000000    0.7036850000000000    0.2963150000000000 Lu
   0.7036850000000000    0.2963150000000000    0.2963150000000000 Lu
   0.2963150000000000    0.2963150000000000    0.7036850000000000 Lu
   0.7036850000000000    0.2963150000000000    0.7036850000000000 Lu
   0.2963150000000000    0.7036850000000000    0.7036850000000000 Lu
   0.0000000000000000    0.0000000000000000    0.0000000000000000 Mn
   0.0000000000000000    0.0000000000000000    0.5000000000000000 Mn
   0.5000000000000000    0.0000000000000000    0.5000000000000000 Mn
   0.0000000000000000    0.5000000000000000    0.5000000000000000 Mn
   0.5000000000000000    0.5000000000000000    0.0000000000000000 Mn
   0.0000000000000000    0.5000000000000000    0.0000000000000000 Mn
   0.5000000000000000    0.0000000000000000    0.0000000000000000 Mn
   0.8785560000000000    0.8785560000000000    0.3643320000000000 Mn
   0.8785560000000000    0.3643320000000000    0.8785560000000000 Mn
   0.3643320000000000    0.8785560000000000    0.8785560000000000 Mn
   0.8785560000000000    0.8785560000000000    0.8785560000000000 Mn
   0.1214440000000000    0.1214440000000000    0.6356680000000000 Mn
   0.1214440000000000    0.6356680000000000    0.1214440000000000 Mn
   0.6356680000000000    0.1214440000000000    0.1214440000000000 Mn
   0.1214440000000000    0.1214440000000000    0.1214440000000000 Mn
   0.6765110000000000    0.6765110000000000    0.9704670000000000 Mn
   0.6765110000000000    0.9704670000000000    0.6765110000000000 Mn
   0.9704670000000000    0.6765110000000000    0.6765110000000000 Mn
   0.6765110000000000    0.6765110000000000    0.6765110000000000 Mn
   0.3234890000000000    0.3234890000000000    0.0295330000000000 Mn
   0.3234890000000000    0.0295330000000000    0.3234890000000000 Mn
   0.0295330000000000    0.3234890000000000    0.3234890000000000 Mn
   0.3234890000000000    0.3234890000000000    0.3234890000000000 Mn
