Al1 Cu1
1.0
      2.3980072000       0.0000000000       0.0000000000
     -0.0000000000       2.3980072000       0.0000000000
      0.0000000000       0.0000000000       2.3980072000
Al Cu
1 1
direct
   0.0000000000000000    0.0000000000000000    0.0000000000000000 Al
   0.5000000000000000    0.5000000000000000    0.5000000000000000 Cu
