Cu2 I2
1.0
      3.3949573040       0.0000000000       0.0000000000
     -1.6974784483       2.9401193876       0.0000000000
      0.0000000000       0.0000000000       5.5906849200
Cu I
2 2
direct
   0.3333333333333333    0.6666666666666666    0.3726787200000000 Cu
   0.6666666666666666    0.3333333333333333    0.8726787200000000 Cu
   0.3333333333333333    0.6666666666666666    0.0023212800000000 I
   0.6666666666666666    0.3333333333333333    0.5023212800000000 I
