Cu2 I2
1.0
      4.0315117985       0.0000000000       0.0000000000
     -2.0157556573       3.4913917728       0.0000000000
      0.0000000000       0.0000000000       6.6389383425
Cu I
2 2
direct
   0.3333333333333333    0.6666666666666666    0.3726787200000000 Cu
   0.6666666666666666    0.3333333333333333    0.8726787200000000 Cu
   0.3333333333333333    0.6666666666666666    0.0023212800000000 I
   0.6666666666666666    0.3333333333333333    0.5023212800000000 I
