Cu2 I2
1.0
      3.6071421355       0.0000000000       0.0000000000
     -1.8035708513       3.1238768494       0.0000000000
      0.0000000000       0.0000000000       5.9401027275
Cu I
2 2
direct
   0.3333333333333333    0.6666666666666666    0.3726787200000000 Cu
   0.6666666666666666    0.3333333333333333    0.8726787200000000 Cu
   0.3333333333333333    0.6666666666666666    0.0023212800000000 I
   0.6666666666666666    0.3333333333333333    0.5023212800000000 I
