Cu2 I2
1.0
      3.1827724725       0.0000000000       0.0000000000
     -1.5913860453       2.7563619259       0.0000000000
      0.0000000000       0.0000000000       5.2412671125
Cu I
2 2
direct
   0.3333333333333333    0.6666666666666666    0.3726787200000000 Cu
   0.6666666666666666    0.3333333333333333    0.8726787200000000 Cu
   0.3333333333333333    0.6666666666666666    0.0023212800000000 I
   0.6666666666666666    0.3333333333333333    0.5023212800000000 I
