Li3 Tl1
1.0
      3.4436761147       0.0000000000       1.9882072156
      1.1478914514       3.2467289981       1.9882072142
      0.0000000000       0.0000000000       3.9764144270
Li Tl
3 1
direct
   0.7500000000000000    0.7500000000000000    0.7500000000000000 Li
   0.5000000000000000    0.5000000000000000    0.5000000000000000 Li
   0.2500000000000000    0.2500000000000000    0.2500000000000000 Li
   0.0000000000000000    0.0000000000000000    0.0000000000000000 Tl
