Li3 Tl1
1.0
      3.0385377482       0.0000000000       1.7543004844
      1.0128453983       2.8647608807       1.7543004831
      0.0000000000       0.0000000000       3.5086009650
Li Tl
3 1
direct
   0.7500000000000000    0.7500000000000000    0.7500000000000000 Li
   0.5000000000000000    0.5000000000000000    0.5000000000000000 Li
   0.2500000000000000    0.2500000000000000    0.2500000000000000 Li
   0.0000000000000000    0.0000000000000000    0.0000000000000000 Tl
