Li3 Tl1
1.0
      3.6462452979       0.0000000000       2.1051605812
      1.2154144780       3.4377130568       2.1051605798
      0.0000000000       0.0000000000       4.2103211580
Li Tl
3 1
direct
   0.7500000000000000    0.7500000000000000    0.7500000000000000 Li
   0.5000000000000000    0.5000000000000000    0.5000000000000000 Li
   0.2500000000000000    0.2500000000000000    0.2500000000000000 Li
   0.0000000000000000    0.0000000000000000    0.0000000000000000 Tl
