Li3 Tl1
1.0
      3.2411069314       0.0000000000       1.8712538500
      1.0803684249       3.0557449394       1.8712538487
      0.0000000000       0.0000000000       3.7425076960
Li Tl
3 1
direct
   0.7500000000000000    0.7500000000000000    0.7500000000000000 Li
   0.5000000000000000    0.5000000000000000    0.5000000000000000 Li
   0.2500000000000000    0.2500000000000000    0.2500000000000000 Li
   0.0000000000000000    0.0000000000000000    0.0000000000000000 Tl
