Li6 N2
1.0
      3.3478721335       0.0000000000       0.0000000000
     -1.6739365466       2.8993434652       0.0000000000
      0.0000000000       0.0000000000       5.9465676265
Li N
6 2
direct
   0.0000000000000000    0.0000000000000000    0.2500000000000000 Li
   0.0000000000000000    0.0000000000000000    0.7500000000000000 Li
   0.3333333333333333    0.6666666666666666    0.5769933600000000 Li
   0.6666666666666666    0.3333333333333333    0.0769933600000000 Li
   0.6666666666666666    0.3333333333333333    0.4230066400000000 Li
   0.3333333333333333    0.6666666666666666    0.9230066400000000 Li
   0.3333333333333333    0.6666666666666666    0.2500000000000000 N
   0.6666666666666666    0.3333333333333333    0.7500000000000000 N
