Li4 Si2
1.0
      3.2817569387       0.0000000000       4.1617546052
      1.4434800884       2.9472519130       4.1617546052
      0.0000000000       0.0000000000       5.3000127200
Li Si
4 2
direct
   0.6409986600000001    0.6409986600000001    0.6409986600000001 Li
   0.3590013400000000    0.3590013400000000    0.3590013400000000 Li
   0.2050475500000000    0.2050475500000000    0.2050475500000000 Li
   0.7949524500000000    0.7949524500000000    0.7949524500000000 Li
   0.9385333600000000    0.9385333600000000    0.9385333600000000 Si
   0.0614666400000000    0.0614666400000000    0.0614666400000000 Si
