K1 Lu1
1.0
      3.2328610920       0.0000000000       0.0000000000
     -1.6164304365       2.7997398958       0.0000000000
      0.0000000000       0.0000000000       6.3932292000
K Lu
1 1
direct
   0.0000000000000000    0.0000000000000000    0.5000000000000000 K
   0.6666666666666666    0.3333333333333333    0.0000000000000000 Lu
