K1 Lu1
1.0
      2.6940509100       0.0000000000       0.0000000000
     -1.3470253638       2.3331165798       0.0000000000
      0.0000000000       0.0000000000       5.3276910000
K Lu
1 1
direct
   0.0000000000000000    0.0000000000000000    0.5000000000000000 K
   0.6666666666666666    0.3333333333333333    0.0000000000000000 Lu
