K1 Lu1
1.0
      3.4124644860       0.0000000000       0.0000000000
     -1.7062321275       2.9552810011       0.0000000000
      0.0000000000       0.0000000000       6.7484086000
K Lu
1 1
direct
   0.0000000000000000    0.0000000000000000    0.5000000000000000 K
   0.6666666666666666    0.3333333333333333    0.0000000000000000 Lu
