K1 Lu1
1.0
      2.8736543040       0.0000000000       0.0000000000
     -1.4368270547       2.4886576851       0.0000000000
      0.0000000000       0.0000000000       5.6828704000
K Lu
1 1
direct
   0.0000000000000000    0.0000000000000000    0.5000000000000000 K
   0.6666666666666666    0.3333333333333333    0.0000000000000000 Lu
