Mn3 F12
1.0
      3.8909609914       0.0000000000      -0.0608087293
     -0.0018722477       4.1666742625      -0.4601066807
      0.0000000000       0.0000000000       5.5648639920
Mn F
3 12
direct
   0.5000000000000000    0.5000000000000000    0.0000000000000000 Mn
   0.0000000000000000    0.0000000000000000    0.0000000000000000 Mn
   0.5000000000000000    0.5000000000000000    0.5000000000000000 Mn
   0.6384346100000000    0.8022315800000001    0.5683597600000000 F
   0.1950379400000000    0.3080592000000000    0.0695529000000000 F
   0.1314943700000000    0.9894800800000000    0.7676509900000000 F
   0.6435330700000000    0.5088506600000000    0.2455108400000000 F
   0.1977568100000000    0.6404191100000000    0.4264072000000000 F
   0.6948256500000000    0.1941743300000000    0.9283583700000000 F
   0.8685056300000000    0.0105199200000000    0.2323490100000000 F
   0.3564669300000000    0.4911493400000000    0.7544891600000000 F
   0.8022431900000000    0.3595808900000000    0.5735928000000000 F
   0.3051743500000000    0.8058256700000000    0.0716416300000000 F
   0.3615653900000000    0.1977684200000000    0.4316402400000000 F
   0.8049620600000000    0.6919408000000000    0.9304471000000000 F
