Li4 Mg2
1.0
      2.4895159120       0.0000000000       0.0000000000
     -1.2447581434       2.1559839147       0.0000000000
      0.0000000000       0.0000000000      12.1204535360
Li Mg
4 2
direct
   0.3333333333333333    0.6666666666666666    0.9162522200000000 Li
   0.6666666666666666    0.3333333333333333    0.7515154100000000 Li
   0.3333333333333333    0.6666666666666666    0.2484845900000000 Li
   0.6666666666666666    0.3333333333333333    0.0837477800000000 Li
   0.3333333333333333    0.6666666666666666    0.5868167300000000 Mg
   0.6666666666666666    0.3333333333333333    0.4131832700000000 Mg
