Cu6 As2
1.0
      3.1858908375       0.0000000000       0.0000000000
     -0.0000000000       3.4844338950       0.0000000000
      0.0000000000       0.0000000000       3.8972911425
Cu As
6 2
direct
   0.0000000000000000    0.0017439400000000    0.5000000000000000 Cu
   0.5000000000000000    0.3312560600000000    0.0000000000000000 Cu
   0.0000000000000000    0.5155077800000000    0.2536213800000000 Cu
   0.0000000000000000    0.5155077800000000    0.7463786200000000 Cu
   0.5000000000000000    0.8174922200000000    0.2463786200000000 Cu
   0.5000000000000000    0.8174922200000000    0.7536213800000000 Cu
   0.0000000000000000    0.9932467800000000    0.0000000000000000 As
   0.5000000000000000    0.3397532200000000    0.5000000000000000 As
