K6 Tc3
1.0
      4.6975942000       0.0000000000       0.0000000000
     -0.0000000000       8.0113206430      -4.6253379825
      0.0000000000       0.0000000000       9.2506761860
K Tc
6 3
direct
   0.0000000000000000    0.5907730000000000    0.5907730000000000 K
   0.0000000000000000    0.0000000000000000    0.4092270000000000 K
   0.0000000000000000    0.4092270000000000    0.0000000000000000 K
   0.5000000000000000    0.2585980000000000    0.2585980000000000 K
   0.5000000000000000    0.0000000000000000    0.7414020000000000 K
   0.5000000000000000    0.7414020000000000    0.0000000000000000 K
   0.0000000000000000    0.0000000000000000    0.0000000000000000 Tc
   0.5000000000000000    0.6666666666666666    0.3333333333333333 Tc
   0.5000000000000000    0.3333333333333333    0.6666666666666666 Tc
