K6 Tc3
1.0
      3.9558688000       0.0000000000       0.0000000000
     -0.0000000000       6.7463752783      -3.8950214590
      0.0000000000       0.0000000000       7.7900431040
K Tc
6 3
direct
   0.0000000000000000    0.5907730000000000    0.5907730000000000 K
   0.0000000000000000    0.0000000000000000    0.4092270000000000 K
   0.0000000000000000    0.4092270000000000    0.0000000000000000 K
   0.5000000000000000    0.2585980000000000    0.2585980000000000 K
   0.5000000000000000    0.0000000000000000    0.7414020000000000 K
   0.5000000000000000    0.7414020000000000    0.0000000000000000 K
   0.0000000000000000    0.0000000000000000    0.0000000000000000 Tc
   0.5000000000000000    0.6666666666666666    0.3333333333333333 Tc
   0.5000000000000000    0.3333333333333333    0.6666666666666666 Tc
