K6 Tc3
1.0
      3.7086270000       0.0000000000       0.0000000000
     -0.0000000000       6.3247268234      -3.6515826178
      0.0000000000       0.0000000000       7.3031654100
K Tc
6 3
direct
   0.0000000000000000    0.5907730000000000    0.5907730000000000 K
   0.0000000000000000    0.0000000000000000    0.4092270000000000 K
   0.0000000000000000    0.4092270000000000    0.0000000000000000 K
   0.5000000000000000    0.2585980000000000    0.2585980000000000 K
   0.5000000000000000    0.0000000000000000    0.7414020000000000 K
   0.5000000000000000    0.7414020000000000    0.0000000000000000 K
   0.0000000000000000    0.0000000000000000    0.0000000000000000 Tc
   0.5000000000000000    0.6666666666666666    0.3333333333333333 Tc
   0.5000000000000000    0.3333333333333333    0.6666666666666666 Tc
