Li1 B11
1.0
      3.2134102710       0.0000000000       1.8552632850
      1.0711367570       3.0296322578       1.8552632850
      0.0000000000       0.0000000000       3.7105265700
Li B
1 11
direct
   0.2500000000000000    0.2500000000000000    0.2500000000000000 Li
   0.7500000000000000    0.7500000000000000    0.7500000000000000 B
   0.3214410000000000    0.3214410000000000    0.6785590000000000 B
   0.6785590000000000    0.3214410000000000    0.6785590000000000 B
   0.3214410000000000    0.6785590000000000    0.6785590000000000 B
   0.6785590000000000    0.6785590000000000    0.3214410000000000 B
   0.3214410000000000    0.6785590000000000    0.3214410000000000 B
   0.6785590000000000    0.3214410000000000    0.3214410000000000 B
   0.2786780000000000    0.9071070000000000    0.9071070000000000 B
   0.9071070000000000    0.2786780000000000    0.9071070000000000 B
   0.9071070000000000    0.9071070000000000    0.9071070000000000 B
   0.9071070000000000    0.9071070000000000    0.2786780000000000 B
