Li1 B11
1.0
      3.4276376224       0.0000000000       1.9789475040
      1.1425458741       3.2316077417       1.9789475040
      0.0000000000       0.0000000000       3.9578950080
Li B
1 11
direct
   0.2500000000000000    0.2500000000000000    0.2500000000000000 Li
   0.7500000000000000    0.7500000000000000    0.7500000000000000 B
   0.3214410000000000    0.3214410000000000    0.6785590000000000 B
   0.6785590000000000    0.3214410000000000    0.6785590000000000 B
   0.3214410000000000    0.6785590000000000    0.6785590000000000 B
   0.6785590000000000    0.6785590000000000    0.3214410000000000 B
   0.3214410000000000    0.6785590000000000    0.3214410000000000 B
   0.6785590000000000    0.3214410000000000    0.3214410000000000 B
   0.2786780000000000    0.9071070000000000    0.9071070000000000 B
   0.9071070000000000    0.2786780000000000    0.9071070000000000 B
   0.9071070000000000    0.9071070000000000    0.9071070000000000 B
   0.9071070000000000    0.9071070000000000    0.2786780000000000 B
