Li1 B11
1.0
      4.0703196766       0.0000000000       2.3500001610
      1.3567732255       3.8375341933       2.3500001610
      0.0000000000       0.0000000000       4.7000003220
Li B
1 11
direct
   0.2500000000000000    0.2500000000000000    0.2500000000000000 Li
   0.7500000000000000    0.7500000000000000    0.7500000000000000 B
   0.3214410000000000    0.3214410000000000    0.6785590000000000 B
   0.6785590000000000    0.3214410000000000    0.6785590000000000 B
   0.3214410000000000    0.6785590000000000    0.6785590000000000 B
   0.6785590000000000    0.6785590000000000    0.3214410000000000 B
   0.3214410000000000    0.6785590000000000    0.3214410000000000 B
   0.6785590000000000    0.3214410000000000    0.3214410000000000 B
   0.2786780000000000    0.9071070000000000    0.9071070000000000 B
   0.9071070000000000    0.2786780000000000    0.9071070000000000 B
   0.9071070000000000    0.9071070000000000    0.9071070000000000 B
   0.9071070000000000    0.9071070000000000    0.2786780000000000 B
