K1 O3
1.0
      4.4275705513       0.0000000000      -1.1648289139
     -1.3076976963       3.3082036487      -2.8819997812
      0.0000000000       0.0000000000       4.5782319060
K O
1 3
direct
   0.4894990000000000    0.4894990000000000    0.0000000000000000 K
   0.8886760000000000    0.0836800000000000    0.8049960000000000 O
   0.9675410000000000    0.9675410000000000    0.0000000000000000 O
   0.2786840000000000    0.0836800000000000    0.1950040000000000 O
