K1 O3
1.0
      3.7284804642       0.0000000000      -0.9809085591
     -1.1012191126       2.7858557042      -2.4269471842
      0.0000000000       0.0000000000       3.8553531840
K O
1 3
direct
   0.4894990000000000    0.4894990000000000    0.0000000000000000 K
   0.8886760000000000    0.0836800000000000    0.8049960000000000 O
   0.9675410000000000    0.9675410000000000    0.0000000000000000 O
   0.2786840000000000    0.0836800000000000    0.1950040000000000 O
