K1 O3
1.0
      3.4954504352       0.0000000000      -0.9196017742
     -1.0323929181       2.6117397227      -2.2752629852
      0.0000000000       0.0000000000       3.6143936100
K O
1 3
direct
   0.4894990000000000    0.4894990000000000    0.0000000000000000 K
   0.8886760000000000    0.0836800000000000    0.8049960000000000 O
   0.9675410000000000    0.9675410000000000    0.0000000000000000 O
   0.2786840000000000    0.0836800000000000    0.1950040000000000 O
