K1 O3
1.0
      4.1945405222       0.0000000000      -1.1035221290
     -1.2388715017       3.1340876672      -2.7303155822
      0.0000000000       0.0000000000       4.3372723320
K O
1 3
direct
   0.4894990000000000    0.4894990000000000    0.0000000000000000 K
   0.8886760000000000    0.0836800000000000    0.8049960000000000 O
   0.9675410000000000    0.9675410000000000    0.0000000000000000 O
   0.2786840000000000    0.0836800000000000    0.1950040000000000 O
