K1 O3
1.0
      3.9615104932       0.0000000000      -1.0422153441
     -1.1700453072       2.9599716857      -2.5786313832
      0.0000000000       0.0000000000       4.0963127580
K O
1 3
direct
   0.4894990000000000    0.4894990000000000    0.0000000000000000 K
   0.8886760000000000    0.0836800000000000    0.8049960000000000 O
   0.9675410000000000    0.9675410000000000    0.0000000000000000 O
   0.2786840000000000    0.0836800000000000    0.1950040000000000 O
