Yb2 Zn4
1.0
      3.4168141010       0.0000000000       1.4769250697
      1.5646482762       4.2904971310       1.0710433962
      0.0000000000       0.0000000000       4.6908020440
Yb Zn
2 4
direct
   0.5296098900000000    0.7203901100000000    0.2203901100000000 Yb
   0.4703901100000000    0.2796098900000000    0.7796098900000000 Yb
   0.8339310900000000    0.7085783300000000    0.6235594800000001 Zn
   0.1660689100000000    0.2914216700000000    0.3764405200000000 Zn
   0.8339310900000000    0.1235594800000000    0.2085783300000000 Zn
   0.1660689100000000    0.8764405199999999    0.7914216700000000 Zn
