Yb2 Zn4
1.0
      3.0148359714       0.0000000000       1.3031691791
      1.3805720084       3.7857327627       0.9450382907
      0.0000000000       0.0000000000       4.1389429800
Yb Zn
2 4
direct
   0.5296098900000000    0.7203901100000000    0.2203901100000000 Yb
   0.4703901100000000    0.2796098900000000    0.7796098900000000 Yb
   0.8339310900000000    0.7085783300000000    0.6235594800000001 Zn
   0.1660689100000000    0.2914216700000000    0.3764405200000000 Zn
   0.8339310900000000    0.1235594800000000    0.2085783300000000 Zn
   0.1660689100000000    0.8764405199999999    0.7914216700000000 Zn
