Cu2 Sn6
1.0
      5.6294515530       0.0000000000       0.0000000000
     -2.8147259305       4.8752479654       0.0000000000
      0.0000000000       0.0000000000       4.2540868000
Cu Sn
2 6
direct
   0.3333333333333333    0.6666666666666666    0.7500000000000000 Cu
   0.6666666666666666    0.3333333333333333    0.2500000000000000 Cu
   0.1723400000000000    0.3446800000000000    0.2500000000000000 Sn
   0.6553200000000000    0.8276600000000000    0.2500000000000000 Sn
   0.1723400000000000    0.8276600000000000    0.2500000000000000 Sn
   0.8276600000000000    0.6553200000000000    0.7500000000000000 Sn
   0.3446800000000000    0.1723400000000000    0.7500000000000000 Sn
   0.8276600000000000    0.1723400000000000    0.7500000000000000 Sn
