Li3 Tc1
1.0
      3.6096381364       0.0000000000       2.0840255498
      1.2032127121       3.4031994719       2.0840255498
      0.0000000000       0.0000000000       4.1680510995
Li Tc
3 1
direct
   0.2500000000000000    0.2500000000000000    0.2500000000000000 Li
   0.7500000000000000    0.7500000000000000    0.7500000000000000 Li
   0.5000000000000000    0.5000000000000000    0.5000000000000000 Li
   0.0000000000000000    0.0000000000000000    0.0000000000000000 Tc
