Li3 Tc1
1.0
      3.0396952728       0.0000000000       1.7549688840
      1.0132317576       2.8658521868       1.7549688840
      0.0000000000       0.0000000000       3.5099377680
Li Tc
3 1
direct
   0.2500000000000000    0.2500000000000000    0.2500000000000000 Li
   0.7500000000000000    0.7500000000000000    0.7500000000000000 Li
   0.5000000000000000    0.5000000000000000    0.5000000000000000 Li
   0.0000000000000000    0.0000000000000000    0.0000000000000000 Tc
