Li3 Tc1
1.0
      2.8497143182       0.0000000000       1.6452833288
      0.9499047727       2.6867364252       1.6452833288
      0.0000000000       0.0000000000       3.2905666575
Li Tc
3 1
direct
   0.2500000000000000    0.2500000000000000    0.2500000000000000 Li
   0.7500000000000000    0.7500000000000000    0.7500000000000000 Li
   0.5000000000000000    0.5000000000000000    0.5000000000000000 Li
   0.0000000000000000    0.0000000000000000    0.0000000000000000 Tc
