Li2 S1
1.0
      2.6042685007       0.0000000000       1.5035752502
      0.8680890005       2.4553267517       1.5035752512
      0.0000000000       0.0000000000       3.0071497500
Li S
2 1
direct
   0.2500000000000000    0.2500000000000000    0.2500000000000000 Li
   0.7500000000000000    0.7500000000000000    0.7500000000000000 Li
   0.0000000000000000    0.0000000000000000    0.0000000000000000 S
