Li2 S1
1.0
      3.1251222008       0.0000000000       1.8042903003
      1.0417068006       2.9463921021       1.8042903015
      0.0000000000       0.0000000000       3.6085797000
Li S
2 1
direct
   0.2500000000000000    0.2500000000000000    0.2500000000000000 Li
   0.7500000000000000    0.7500000000000000    0.7500000000000000 Li
   0.0000000000000000    0.0000000000000000    0.0000000000000000 S
