In4 Cu2
1.0
      3.5185233900       0.0000000000       0.0000000000
     -1.7592620832       3.0471304154       0.0000000000
      0.0000000000       0.0000000000       5.1764265000
In Cu
4 2
direct
   0.3333333333333333    0.6666666666666666    0.7500000000000000 In
   0.6666666666666666    0.3333333333333333    0.2500000000000000 In
   0.0000000000000000    0.0000000000000000    0.5000000000000000 In
   0.0000000000000000    0.0000000000000000    0.0000000000000000 In
   0.3333333333333333    0.6666666666666666    0.2500000000000000 Cu
   0.6666666666666666    0.3333333333333333    0.7500000000000000 Cu
