In4 Cu2
1.0
      4.2222280680       0.0000000000       0.0000000000
     -2.1111144999       3.6565564985       0.0000000000
      0.0000000000       0.0000000000       6.2117118000
In Cu
4 2
direct
   0.3333333333333333    0.6666666666666666    0.7500000000000000 In
   0.6666666666666666    0.3333333333333333    0.2500000000000000 In
   0.0000000000000000    0.0000000000000000    0.5000000000000000 In
   0.0000000000000000    0.0000000000000000    0.0000000000000000 In
   0.3333333333333333    0.6666666666666666    0.2500000000000000 Cu
   0.6666666666666666    0.3333333333333333    0.7500000000000000 Cu
