In4 Cu2
1.0
      3.7530916160       0.0000000000       0.0000000000
     -1.8765462221       3.2502724431       0.0000000000
      0.0000000000       0.0000000000       5.5215216000
In Cu
4 2
direct
   0.3333333333333333    0.6666666666666666    0.7500000000000000 In
   0.6666666666666666    0.3333333333333333    0.2500000000000000 In
   0.0000000000000000    0.0000000000000000    0.5000000000000000 In
   0.0000000000000000    0.0000000000000000    0.0000000000000000 In
   0.3333333333333333    0.6666666666666666    0.2500000000000000 Cu
   0.6666666666666666    0.3333333333333333    0.7500000000000000 Cu
