Cu6 Se6
1.0
      3.6187640280       0.0000000000       0.0000000000
     -1.8093810437       3.1339421388       0.0000000000
      0.0000000000       0.0000000000      15.7361328000
Cu Se
6 6
direct
   0.3333333333333333    0.6666666666666666    0.7500000000000000 Cu
   0.6666666666666666    0.3333333333333333    0.2500000000000000 Cu
   0.3333333333333333    0.6666666666666666    0.1077370000000000 Cu
   0.6666666666666666    0.3333333333333333    0.6077370000000000 Cu
   0.6666666666666666    0.3333333333333333    0.8922630000000000 Cu
   0.3333333333333333    0.6666666666666666    0.3922630000000000 Cu
   0.3333333333333333    0.6666666666666666    0.2500000000000000 Se
   0.6666666666666666    0.3333333333333333    0.7500000000000000 Se
   0.0000000000000000    0.0000000000000000    0.0694570000000000 Se
   0.0000000000000000    0.0000000000000000    0.5694570000000000 Se
   0.0000000000000000    0.0000000000000000    0.9305430000000000 Se
   0.0000000000000000    0.0000000000000000    0.4305430000000000 Se
