K1 Li3
1.0
      4.4322545664       0.0000000000       2.5589633670
      1.4774181888       4.1787696797       2.5589633670
      0.0000000000       0.0000000000       5.1179267340
K Li
1 3
direct
   0.0000000000000000    0.0000000000000000    0.0000000000000000 K
   0.2500000000000000    0.2500000000000000    0.2500000000000000 Li
   0.7500000000000000    0.7500000000000000    0.7500000000000000 Li
   0.5000000000000000    0.5000000000000000    0.5000000000000000 Li
