K3 Ta1
1.0
      4.6927900117       0.0000000000       2.7093835765
      1.5642633372       4.4244048533       2.7093835765
      0.0000000000       0.0000000000       5.4187671530
K Ta
3 1
direct
   0.2500000000000000    0.2500000000000000    0.2500000000000000 K
   0.7500000000000000    0.7500000000000000    0.7500000000000000 K
   0.5000000000000000    0.5000000000000000    0.5000000000000000 K
   0.0000000000000000    0.0000000000000000    0.0000000000000000 Ta
