K3 Ta1
1.0
      4.4167435404       0.0000000000       2.5500080720
      1.4722478468       4.1641457443       2.5500080720
      0.0000000000       0.0000000000       5.1000161440
K Ta
3 1
direct
   0.2500000000000000    0.2500000000000000    0.2500000000000000 K
   0.7500000000000000    0.7500000000000000    0.7500000000000000 K
   0.5000000000000000    0.5000000000000000    0.5000000000000000 K
   0.0000000000000000    0.0000000000000000    0.0000000000000000 Ta
