K3 Ta1
1.0
      4.1406970691       0.0000000000       2.3906325675
      1.3802323564       3.9038866352       2.3906325675
      0.0000000000       0.0000000000       4.7812651350
K Ta
3 1
direct
   0.2500000000000000    0.2500000000000000    0.2500000000000000 K
   0.7500000000000000    0.7500000000000000    0.7500000000000000 K
   0.5000000000000000    0.5000000000000000    0.5000000000000000 K
   0.0000000000000000    0.0000000000000000    0.0000000000000000 Ta
