K3 Ta1
1.0
      5.2448829542       0.0000000000       3.0281345855
      1.7482943181       4.9449230713       3.0281345855
      0.0000000000       0.0000000000       6.0562691710
K Ta
3 1
direct
   0.2500000000000000    0.2500000000000000    0.2500000000000000 K
   0.7500000000000000    0.7500000000000000    0.7500000000000000 K
   0.5000000000000000    0.5000000000000000    0.5000000000000000 K
   0.0000000000000000    0.0000000000000000    0.0000000000000000 Ta
