K3 Ta1
1.0
      4.9688364830       0.0000000000       2.8687590810
      1.6562788277       4.6846639623       2.8687590810
      0.0000000000       0.0000000000       5.7375181620
K Ta
3 1
direct
   0.2500000000000000    0.2500000000000000    0.2500000000000000 K
   0.7500000000000000    0.7500000000000000    0.7500000000000000 K
   0.5000000000000000    0.5000000000000000    0.5000000000000000 K
   0.0000000000000000    0.0000000000000000    0.0000000000000000 Ta
