Zn1 Rh1
1.0
      2.6912037150       0.0000000000       0.0000000000
     -0.0000000000       2.6912037150       0.0000000000
      0.0000000000       0.0000000000       2.6912037150
Zn Rh
1 1
direct
   0.5000000000000000    0.5000000000000000    0.5000000000000000 Zn
   0.0000000000000000    0.0000000000000000    0.0000000000000000 Rh
