Li1 Eu3
1.0
      4.3254129014       0.0000000000      -4.3391058237
     -0.7388111116       4.2618487666      -4.3391058237
      0.0000000000       0.0000000000       6.1267475970
Li Eu
1 3
direct
   0.0000000000000000    0.0000000000000000    0.0000000000000000 Li
   0.7500000000000000    0.2500000000000000    0.5000000000000000 Eu
   0.2500000000000000    0.7500000000000000    0.5000000000000000 Eu
   0.5000000000000000    0.5000000000000000    0.0000000000000000 Eu
