Li1 Eu3
1.0
      4.5657136182       0.0000000000      -4.5801672584
     -0.7798561734       4.4986181425      -4.5801672584
      0.0000000000       0.0000000000       6.4671224635
Li Eu
1 3
direct
   0.0000000000000000    0.0000000000000000    0.0000000000000000 Li
   0.7500000000000000    0.2500000000000000    0.5000000000000000 Eu
   0.2500000000000000    0.7500000000000000    0.5000000000000000 Eu
   0.5000000000000000    0.5000000000000000    0.0000000000000000 Eu
