Li1 Eu3
1.0
      4.0851121847       0.0000000000      -4.0980443891
     -0.6977660499       4.0250793907      -4.0980443891
      0.0000000000       0.0000000000       5.7863727305
Li Eu
1 3
direct
   0.0000000000000000    0.0000000000000000    0.0000000000000000 Li
   0.7500000000000000    0.2500000000000000    0.5000000000000000 Eu
   0.2500000000000000    0.7500000000000000    0.5000000000000000 Eu
   0.5000000000000000    0.5000000000000000    0.0000000000000000 Eu
