Li1 Eu3
1.0
      3.6045107512       0.0000000000      -3.6159215198
     -0.6156759264       3.5515406388      -3.6159215198
      0.0000000000       0.0000000000       5.1056229975
Li Eu
1 3
direct
   0.0000000000000000    0.0000000000000000    0.0000000000000000 Li
   0.7500000000000000    0.2500000000000000    0.5000000000000000 Eu
   0.2500000000000000    0.7500000000000000    0.5000000000000000 Eu
   0.5000000000000000    0.5000000000000000    0.0000000000000000 Eu
