Li1 Eu3
1.0
      3.8448114679       0.0000000000      -3.8569829544
     -0.6567209881       3.7883100147      -3.8569829544
      0.0000000000       0.0000000000       5.4459978640
Li Eu
1 3
direct
   0.0000000000000000    0.0000000000000000    0.0000000000000000 Li
   0.7500000000000000    0.2500000000000000    0.5000000000000000 Eu
   0.2500000000000000    0.7500000000000000    0.5000000000000000 Eu
   0.5000000000000000    0.5000000000000000    0.0000000000000000 Eu
