Zn1 Cu1
1.0
      2.7745262240       0.0000000000       0.0000000000
     -0.0000000000       2.7745262240       0.0000000000
      0.0000000000       0.0000000000       2.7745262240
Zn Cu
1 1
direct
   0.5000000000000000    0.5000000000000000    0.5000000000000000 Zn
   0.0000000000000000    0.0000000000000000    0.0000000000000000 Cu
