Li1 Mg1
1.0
      2.8556149940       0.0000000000       0.0000000000
     -0.9755908270       2.6837957322       0.0000000000
      0.0000000000       0.0000000000       4.6439924450
Li Mg
1 1
direct
   0.0000000000000000    0.0000000000000000    0.0000000000000000 Li
   0.5000000000000000    0.5000000000000000    0.5000000000000000 Mg
