K2 Pr6
1.0
      6.7715608785       0.0000000000       0.0000000000
     -3.3857806214       5.8643436389       0.0000000000
      0.0000000000       0.0000000000       5.0877557500
K Pr
2 6
direct
   0.3333333333333333    0.6666666666666666    0.7500000000000000 K
   0.6666666666666666    0.3333333333333333    0.2500000000000000 K
   0.1546200000000000    0.3092390000000000    0.2500000000000000 Pr
   0.6907610000000000    0.8453800000000000    0.2500000000000000 Pr
   0.1546200000000000    0.8453800000000000    0.2500000000000000 Pr
   0.8453800000000000    0.6907610000000000    0.7500000000000000 Pr
   0.3092390000000000    0.1546200000000000    0.7500000000000000 Pr
   0.8453800000000000    0.1546200000000000    0.7500000000000000 Pr
