Li1 Y3
1.0
      4.1671376994       0.0000000000      -4.2844120446
     -0.6872625989       4.1100738103      -4.2844120446
      0.0000000000       0.0000000000       5.9767234480
Li Y
1 3
direct
   0.0000000000000000    0.0000000000000000    0.0000000000000000 Li
   0.7500000000000000    0.2500000000000000    0.5000000000000000 Y
   0.2500000000000000    0.7500000000000000    0.5000000000000000 Y
   0.5000000000000000    0.5000000000000000    0.0000000000000000 Y
