Th1 Zn4
1.0
      3.1779239666       0.0000000000      -1.2216454132
     -0.4696196317       3.1430330496      -1.2216446436
      0.0000000000       0.0000000000       4.7442659760
Th Zn
1 4
direct
   0.0000000000000000    0.0000000000000000    0.0000000000000000 Th
   0.6185052700000000    0.6185052700000000    0.2370105400000000 Zn
   0.2500000000000000    0.7500000000000000    0.5000000000000000 Zn
   0.7500000000000000    0.2500000000000000    0.5000000000000000 Zn
   0.3814947300000000    0.3814947300000000    0.7629894600000000 Zn
