Mg1 Cl2
1.0
      2.7332516250       0.0000000000       0.0000000000
     -1.3666258133       2.3670660086       0.0000000000
      0.0000000000       0.0000000000       4.4678788125
Mg Cl
1 2
direct
   0.0000000000000000    0.0000000000000000    0.0000000000000000 Mg
   0.3333333333333333    0.6666666666666666    0.2289924800000000 Cl
   0.6666666666666666    0.3333333333333333    0.7710075199999999 Cl
