Mg1 Cl2
1.0
      3.4621187250       0.0000000000       0.0000000000
     -1.7310593635       2.9982836108       0.0000000000
      0.0000000000       0.0000000000       5.6593131625
Mg Cl
1 2
direct
   0.0000000000000000    0.0000000000000000    0.0000000000000000 Mg
   0.3333333333333333    0.6666666666666666    0.2289924800000000 Cl
   0.6666666666666666    0.3333333333333333    0.7710075199999999 Cl
