Mg1 Cl2
1.0
      3.2799019500       0.0000000000       0.0000000000
     -1.6399509760       2.8404792103       0.0000000000
      0.0000000000       0.0000000000       5.3614545750
Mg Cl
1 2
direct
   0.0000000000000000    0.0000000000000000    0.0000000000000000 Mg
   0.3333333333333333    0.6666666666666666    0.2289924800000000 Cl
   0.6666666666666666    0.3333333333333333    0.7710075199999999 Cl
