Mg1 Cl2
1.0
      2.9154684000       0.0000000000       0.0000000000
     -1.4577342009       2.5248704091       0.0000000000
      0.0000000000       0.0000000000       4.7657374000
Mg Cl
1 2
direct
   0.0000000000000000    0.0000000000000000    0.0000000000000000 Mg
   0.3333333333333333    0.6666666666666666    0.2289924800000000 Cl
   0.6666666666666666    0.3333333333333333    0.7710075199999999 Cl
