Cu1 Pt3
1.0
      4.6929528230       0.0000000000       0.0000000000
     -2.4474700907       4.0042098289       0.0000000000
      0.0000000000       0.0000000000      26.8230001500
Cu Pt
1 3
direct
   0.0000000000000000    0.0000000000000000    0.0000000000000000 Cu
   0.0000000000000000    0.0000000000000000    0.5000000000000000 Pt
   0.5000000000000000    0.0000000000000000    0.0000000000000000 Pt
   0.0000000000000000    0.5000000000000000    0.0000000000000000 Pt
