Cu1 Pt3
1.0
      3.7049627550       0.0000000000       0.0000000000
     -1.9322132295       3.1612182860       0.0000000000
      0.0000000000       0.0000000000      21.1760527500
Cu Pt
1 3
direct
   0.0000000000000000    0.0000000000000000    0.0000000000000000 Cu
   0.0000000000000000    0.0000000000000000    0.5000000000000000 Pt
   0.5000000000000000    0.0000000000000000    0.0000000000000000 Pt
   0.0000000000000000    0.5000000000000000    0.0000000000000000 Pt
