Cu1 Pt3
1.0
      3.9519602720       0.0000000000       0.0000000000
     -2.0610274448       3.3719661717       0.0000000000
      0.0000000000       0.0000000000      22.5877896000
Cu Pt
1 3
direct
   0.0000000000000000    0.0000000000000000    0.0000000000000000 Cu
   0.0000000000000000    0.0000000000000000    0.5000000000000000 Pt
   0.5000000000000000    0.0000000000000000    0.0000000000000000 Pt
   0.0000000000000000    0.5000000000000000    0.0000000000000000 Pt
