Cu1 Pt3
1.0
      4.4459553060       0.0000000000       0.0000000000
     -2.3186558754       3.7934619432       0.0000000000
      0.0000000000       0.0000000000      25.4112633000
Cu Pt
1 3
direct
   0.0000000000000000    0.0000000000000000    0.0000000000000000 Cu
   0.0000000000000000    0.0000000000000000    0.5000000000000000 Pt
   0.5000000000000000    0.0000000000000000    0.0000000000000000 Pt
   0.0000000000000000    0.5000000000000000    0.0000000000000000 Pt
