Cu1 Pt3
1.0
      4.1989577890       0.0000000000       0.0000000000
     -2.1898416601       3.5827140575       0.0000000000
      0.0000000000       0.0000000000      23.9995264500
Cu Pt
1 3
direct
   0.0000000000000000    0.0000000000000000    0.0000000000000000 Cu
   0.0000000000000000    0.0000000000000000    0.5000000000000000 Pt
   0.5000000000000000    0.0000000000000000    0.0000000000000000 Pt
   0.0000000000000000    0.5000000000000000    0.0000000000000000 Pt
