K6 Rb2
1.0
      7.2853700250       0.0000000000       0.0000000000
     -3.6426834345       6.3093164287       0.0000000000
      0.0000000000       0.0000000000       5.9412747150
K Rb
6 2
direct
   0.1649777200000000    0.3299554400000000    0.2500000000000000 K
   0.6700445600000000    0.8350222800000000    0.2500000000000000 K
   0.1649777200000000    0.8350222800000000    0.2500000000000000 K
   0.8350222800000000    0.6700445600000000    0.7500000000000000 K
   0.3299554400000000    0.1649777200000000    0.7500000000000000 K
   0.8350222800000000    0.1649777200000000    0.7500000000000000 K
   0.3333333333333333    0.6666666666666666    0.7500000000000000 Rb
   0.6666666666666666    0.3333333333333333    0.2500000000000000 Rb
