Mg6 O6
1.0
      5.3585491000       0.0000000000       0.0000000000
     -0.0000000000       5.3585491000       0.0000000000
      0.0000000000       0.0000000000       5.3585491000
Mg O
6 6
direct
   0.2500000000000000    0.0000000000000000    0.5000000000000000 Mg
   0.0000000000000000    0.5000000000000000    0.2500000000000000 Mg
   0.5000000000000000    0.7500000000000000    0.0000000000000000 Mg
   0.7500000000000000    0.0000000000000000    0.5000000000000000 Mg
   0.0000000000000000    0.5000000000000000    0.7500000000000000 Mg
   0.5000000000000000    0.2500000000000000    0.0000000000000000 Mg
   0.2500000000000000    0.5000000000000000    0.0000000000000000 O
   0.5000000000000000    0.0000000000000000    0.2500000000000000 O
   0.0000000000000000    0.7500000000000000    0.5000000000000000 O
   0.7500000000000000    0.5000000000000000    0.0000000000000000 O
   0.5000000000000000    0.0000000000000000    0.7500000000000000 O
   0.0000000000000000    0.2500000000000000    0.5000000000000000 O
