Mg6 O6
1.0
      4.5124624000       0.0000000000       0.0000000000
     -0.0000000000       4.5124624000       0.0000000000
      0.0000000000       0.0000000000       4.5124624000
Mg O
6 6
direct
   0.2500000000000000    0.0000000000000000    0.5000000000000000 Mg
   0.0000000000000000    0.5000000000000000    0.2500000000000000 Mg
   0.5000000000000000    0.7500000000000000    0.0000000000000000 Mg
   0.7500000000000000    0.0000000000000000    0.5000000000000000 Mg
   0.0000000000000000    0.5000000000000000    0.7500000000000000 Mg
   0.5000000000000000    0.2500000000000000    0.0000000000000000 Mg
   0.2500000000000000    0.5000000000000000    0.0000000000000000 O
   0.5000000000000000    0.0000000000000000    0.2500000000000000 O
   0.0000000000000000    0.7500000000000000    0.5000000000000000 O
   0.7500000000000000    0.5000000000000000    0.0000000000000000 O
   0.5000000000000000    0.0000000000000000    0.7500000000000000 O
   0.0000000000000000    0.2500000000000000    0.5000000000000000 O
