Ga1 Cu4
1.0
      2.1061027563       0.0000000000       8.1285637690
      1.0359476429       1.8337069835       8.1285637690
      0.0000000000       0.0000000000       8.3969767280
Ga Cu
1 4
direct
   0.0000000000000000    0.0000000000000000    0.0000000000000000 Ga
   0.5984890000000000    0.5984890000000000    0.5984890000000000 Cu
   0.1995170000000000    0.1995170000000000    0.1995170000000000 Cu
   0.8004829999999999    0.8004829999999999    0.8004829999999999 Cu
   0.4015110000000000    0.4015110000000000    0.4015110000000000 Cu
