Ga1 Cu4
1.0
      2.3693656009       0.0000000000       9.1446342402
      1.1654410982       2.0629203565       9.1446342402
      0.0000000000       0.0000000000       9.4465988190
Ga Cu
1 4
direct
   0.0000000000000000    0.0000000000000000    0.0000000000000000 Ga
   0.5984890000000000    0.5984890000000000    0.5984890000000000 Cu
   0.1995170000000000    0.1995170000000000    0.1995170000000000 Cu
   0.8004829999999999    0.8004829999999999    0.8004829999999999 Cu
   0.4015110000000000    0.4015110000000000    0.4015110000000000 Cu
