Ga1 Cu4
1.0
      2.2377341786       0.0000000000       8.6365990046
      1.1006943706       1.9483136700       8.6365990046
      0.0000000000       0.0000000000       8.9217877735
Ga Cu
1 4
direct
   0.0000000000000000    0.0000000000000000    0.0000000000000000 Ga
   0.5984890000000000    0.5984890000000000    0.5984890000000000 Cu
   0.1995170000000000    0.1995170000000000    0.1995170000000000 Cu
   0.8004829999999999    0.8004829999999999    0.8004829999999999 Cu
   0.4015110000000000    0.4015110000000000    0.4015110000000000 Cu
