Mn6 Sb2
1.0
      4.0605792825       0.0000000000       0.0000000000
     -2.0302894240       3.5165649382       0.0000000000
      0.0000000000       0.0000000000       3.2585295000
Mn Sb
6 2
direct
   0.1529570000000000    0.3059130000000000    0.2500000000000000 Mn
   0.6940870000000000    0.8470430000000000    0.2500000000000000 Mn
   0.1529570000000000    0.8470430000000000    0.2500000000000000 Mn
   0.8470430000000000    0.6940870000000000    0.7500000000000000 Mn
   0.3059130000000000    0.1529570000000000    0.7500000000000000 Mn
   0.8470430000000000    0.1529570000000000    0.7500000000000000 Mn
   0.3333333333333333    0.6666666666666666    0.7500000000000000 Sb
   0.6666666666666666    0.3333333333333333    0.2500000000000000 Sb
