Mn6 Sb2
1.0
      4.8726951390       0.0000000000       0.0000000000
     -2.4363473088       4.2198779258       0.0000000000
      0.0000000000       0.0000000000       3.9102354000
Mn Sb
6 2
direct
   0.1529570000000000    0.3059130000000000    0.2500000000000000 Mn
   0.6940870000000000    0.8470430000000000    0.2500000000000000 Mn
   0.1529570000000000    0.8470430000000000    0.2500000000000000 Mn
   0.8470430000000000    0.6940870000000000    0.7500000000000000 Mn
   0.3059130000000000    0.1529570000000000    0.7500000000000000 Mn
   0.8470430000000000    0.1529570000000000    0.7500000000000000 Mn
   0.3333333333333333    0.6666666666666666    0.7500000000000000 Sb
   0.6666666666666666    0.3333333333333333    0.2500000000000000 Sb
