K1 Pm3
1.0
      4.5920119569       0.0000000000      -4.3251618487
     -0.8563799183       4.5114506811      -4.3251618487
      0.0000000000       0.0000000000       6.3082167710
K Pm
1 3
direct
   0.0000000000000000    0.0000000000000000    0.0000000000000000 K
   0.7500000000000000    0.2500000000000000    0.5000000000000000 Pm
   0.2500000000000000    0.7500000000000000    0.5000000000000000 Pm
   0.5000000000000000    0.5000000000000000    0.0000000000000000 Pm
