K1 Pm3
1.0
      4.3503271171       0.0000000000      -4.0975217514
     -0.8113072911       4.2740059084      -4.0975217514
      0.0000000000       0.0000000000       5.9762053620
K Pm
1 3
direct
   0.0000000000000000    0.0000000000000000    0.0000000000000000 K
   0.7500000000000000    0.2500000000000000    0.5000000000000000 Pm
   0.2500000000000000    0.7500000000000000    0.5000000000000000 Pm
   0.5000000000000000    0.5000000000000000    0.0000000000000000 Pm
