K1 Pm3
1.0
      4.1086422772       0.0000000000      -3.8698816541
     -0.7662346638       4.0365611357      -3.8698816541
      0.0000000000       0.0000000000       5.6441939530
K Pm
1 3
direct
   0.0000000000000000    0.0000000000000000    0.0000000000000000 K
   0.7500000000000000    0.2500000000000000    0.5000000000000000 Pm
   0.2500000000000000    0.7500000000000000    0.5000000000000000 Pm
   0.5000000000000000    0.5000000000000000    0.0000000000000000 Pm
