K1 Pm3
1.0
      3.6252725976       0.0000000000      -3.4146014595
     -0.6760894092       3.5616715903      -3.4146014595
      0.0000000000       0.0000000000       4.9801711350
K Pm
1 3
direct
   0.0000000000000000    0.0000000000000000    0.0000000000000000 K
   0.7500000000000000    0.2500000000000000    0.5000000000000000 Pm
   0.2500000000000000    0.7500000000000000    0.5000000000000000 Pm
   0.5000000000000000    0.5000000000000000    0.0000000000000000 Pm
