K1 Pm3
1.0
      3.8669574374       0.0000000000      -3.6422415568
     -0.7211620365       3.7991163630      -3.6422415568
      0.0000000000       0.0000000000       5.3121825440
K Pm
1 3
direct
   0.0000000000000000    0.0000000000000000    0.0000000000000000 K
   0.7500000000000000    0.2500000000000000    0.5000000000000000 Pm
   0.2500000000000000    0.7500000000000000    0.5000000000000000 Pm
   0.5000000000000000    0.5000000000000000    0.0000000000000000 Pm
