Cu3 S2
1.0
      2.6043810450       0.0000000000       0.0000000000
     -0.0000000000       4.4504122500       0.0000000000
      0.0000000000       0.0000000000       2.6043810450
Cu S
3 2
direct
   0.5000000000000000    0.7500000000000000    0.0000000000000000 Cu
   0.0000000000000000    0.4200300000000000    0.0000000000000000 Cu
   0.5000000000000000    0.0799700000000000    0.5000000000000000 Cu
   0.0000000000000000    0.0184190000000000    0.0000000000000000 S
   0.5000000000000000    0.4815810000000000    0.5000000000000000 S
