Li6 Mg2
1.0
      4.5682171650       0.0000000000       0.0000000000
     -2.2841085837       3.9561920276       0.0000000000
      0.0000000000       0.0000000000       3.7586577525
Li Mg
6 2
direct
   0.3335558100000000    0.1667784100000000    0.2500000000000000 Li
   0.8332215900000000    0.1667784100000000    0.2500000000000000 Li
   0.8332215900000000    0.6664441900000000    0.2500000000000000 Li
   0.6664441900000000    0.8332215900000000    0.7500000000000000 Li
   0.1667784100000000    0.3335558100000000    0.7500000000000000 Li
   0.1667784100000000    0.8332215900000000    0.7500000000000000 Li
   0.3333333333333333    0.6666666666666666    0.2500000000000000 Mg
   0.6666666666666666    0.3333333333333333    0.7500000000000000 Mg
