Li6 Mg2
1.0
      4.8727649760       0.0000000000       0.0000000000
     -2.4363824892       4.2199381628       0.0000000000
      0.0000000000       0.0000000000       4.0092349360
Li Mg
6 2
direct
   0.3335558100000000    0.1667784100000000    0.2500000000000000 Li
   0.8332215900000000    0.1667784100000000    0.2500000000000000 Li
   0.8332215900000000    0.6664441900000000    0.2500000000000000 Li
   0.6664441900000000    0.8332215900000000    0.7500000000000000 Li
   0.1667784100000000    0.3335558100000000    0.7500000000000000 Li
   0.1667784100000000    0.8332215900000000    0.7500000000000000 Li
   0.3333333333333333    0.6666666666666666    0.2500000000000000 Mg
   0.6666666666666666    0.3333333333333333    0.7500000000000000 Mg
