K1 Rb3
1.0
      5.3561138100       0.0000000000       0.0000000000
     -0.0000000000       5.3561138100       0.0000000000
      0.0000000000       0.0000000000       5.3561138100
K Rb
1 3
direct
   0.0000000000000000    0.0000000000000000    0.0000000000000000 K
   0.0000000000000000    0.5000000000000000    0.5000000000000000 Rb
   0.5000000000000000    0.0000000000000000    0.5000000000000000 Rb
   0.5000000000000000    0.5000000000000000    0.0000000000000000 Rb
