K1 Rb3
1.0
      6.0702623180       0.0000000000       0.0000000000
     -0.0000000000       6.0702623180       0.0000000000
      0.0000000000       0.0000000000       6.0702623180
K Rb
1 3
direct
   0.0000000000000000    0.0000000000000000    0.0000000000000000 K
   0.0000000000000000    0.5000000000000000    0.5000000000000000 Rb
   0.5000000000000000    0.0000000000000000    0.5000000000000000 Rb
   0.5000000000000000    0.5000000000000000    0.0000000000000000 Rb
