Li2 B2
1.0
      3.0072741225       0.0000000000       0.0000000000
     -1.5034261696       2.6045061844       0.0000000000
      0.0000000000       0.0000000000       2.3215351650
Li B
2 2
direct
   0.3333333333333333    0.6666666666666666    0.2500000000000000 Li
   0.6666666666666666    0.3333333333333333    0.7500000000000000 Li
   0.9999951900000000    0.0000121300000000    0.2500000000000000 B
   0.0000048100000000    0.9999878700000000    0.7500000000000000 B
