Li2 B1
1.0
      1.9500392070       0.0000000000       0.0019157350
      0.0018050502       3.1830790920       1.8363385101
      0.0000000000       0.0000000000       3.6747976570
Li B
2 1
direct
   0.0060990000000000    0.3332530000000000    0.3332530000000000 Li
   0.9939010000000000    0.6667470000000000    0.6667470000000000 Li
   0.5000000000000000    0.0000000000000000    0.0000000000000000 B
