Li2 B1
1.0
      1.8474055645       0.0000000000       0.0018149068
      0.0017100475       3.0155486134       1.7396891148
      0.0000000000       0.0000000000       3.4813872540
Li B
2 1
direct
   0.0060990000000000    0.3332530000000000    0.3332530000000000 Li
   0.9939010000000000    0.6667470000000000    0.6667470000000000 Li
   0.5000000000000000    0.0000000000000000    0.0000000000000000 B
