Li2 B1
1.0
      1.6421382796       0.0000000000       0.0016132505
      0.0015200422       2.6804876564       1.5463903243
      0.0000000000       0.0000000000       3.0945664480
Li B
2 1
direct
   0.0060990000000000    0.3332530000000000    0.3332530000000000 Li
   0.9939010000000000    0.6667470000000000    0.6667470000000000 Li
   0.5000000000000000    0.0000000000000000    0.0000000000000000 B
