Li3 Nb1
1.0
      2.9167029659       0.0000000000       1.6839592425
      0.9722343220       2.7498939278       1.6839592425
      0.0000000000       0.0000000000       3.3679184850
Li Nb
3 1
direct
   0.2500000000000000    0.2500000000000000    0.2500000000000000 Li
   0.7500000000000000    0.7500000000000000    0.7500000000000000 Li
   0.5000000000000000    0.5000000000000000    0.5000000000000000 Li
   0.0000000000000000    0.0000000000000000    0.0000000000000000 Nb
