Li3 Nb1
1.0
      3.5000435591       0.0000000000       2.0207510910
      1.1666811864       3.2998727134       2.0207510910
      0.0000000000       0.0000000000       4.0415021820
Li Nb
3 1
direct
   0.2500000000000000    0.2500000000000000    0.2500000000000000 Li
   0.7500000000000000    0.7500000000000000    0.7500000000000000 Li
   0.5000000000000000    0.5000000000000000    0.5000000000000000 Li
   0.0000000000000000    0.0000000000000000    0.0000000000000000 Nb
