Li1 La3
1.0
      3.8370517500       0.0000000000       0.0000000000
     -0.0000000000       3.8370517500       0.0000000000
      0.0000000000       0.0000000000       3.8370517500
Li La
1 3
direct
   0.5000000000000000    0.5000000000000000    0.5000000000000000 Li
   0.5000000000000000    0.0000000000000000    0.0000000000000000 La
   0.0000000000000000    0.5000000000000000    0.0000000000000000 La
   0.0000000000000000    0.0000000000000000    0.5000000000000000 La
