Li1 La3
1.0
      4.6044621000       0.0000000000       0.0000000000
     -0.0000000000       4.6044621000       0.0000000000
      0.0000000000       0.0000000000       4.6044621000
Li La
1 3
direct
   0.5000000000000000    0.5000000000000000    0.5000000000000000 Li
   0.5000000000000000    0.0000000000000000    0.0000000000000000 La
   0.0000000000000000    0.5000000000000000    0.0000000000000000 La
   0.0000000000000000    0.0000000000000000    0.5000000000000000 La
