Sm1 Zn1
1.0
      3.4426164885       0.0000000000       0.0000000000
     -0.0000000000       3.4426164885       0.0000000000
      0.0000000000       0.0000000000       3.4426164885
Sm Zn
1 1
direct
   0.0000000000000000    0.0000000000000000    0.0000000000000000 Sm
   0.5000000000000000    0.5000000000000000    0.5000000000000000 Zn
