Sm1 Zn1
1.0
      2.7178551225       0.0000000000       0.0000000000
     -0.0000000000       2.7178551225       0.0000000000
      0.0000000000       0.0000000000       2.7178551225
Sm Zn
1 1
direct
   0.0000000000000000    0.0000000000000000    0.0000000000000000 Sm
   0.5000000000000000    0.5000000000000000    0.5000000000000000 Zn
