Li1 Bi1
1.0
      3.1545605285       0.0000000000       0.0000000000
     -0.0000000000       3.1545605285       0.0000000000
      0.0000000000       0.0000000000       4.1037987520
Li Bi
1 1
direct
   0.5000000000000000    0.5000000000000000    0.5000000000000000 Li
   0.0000000000000000    0.0000000000000000    0.0000000000000000 Bi
