Li1 Bi1
1.0
      2.9885310270       0.0000000000       0.0000000000
     -0.0000000000       2.9885310270       0.0000000000
      0.0000000000       0.0000000000       3.8878093440
Li Bi
1 1
direct
   0.5000000000000000    0.5000000000000000    0.5000000000000000 Li
   0.0000000000000000    0.0000000000000000    0.0000000000000000 Bi
