Li1 Sn3
1.0
      3.5503019834       0.0000000000      -3.3367479239
     -0.6640774500       3.4876417984      -3.3367479239
      0.0000000000       0.0000000000       4.8722203235
Li Sn
1 3
direct
   0.0000000000000000    0.0000000000000000    0.0000000000000000 Li
   0.7500000000000000    0.2500000000000000    0.5000000000000000 Sn
   0.2500000000000000    0.7500000000000000    0.5000000000000000 Sn
   0.5000000000000000    0.5000000000000000    0.0000000000000000 Sn
