Li1 Sn3
1.0
      3.3414606902       0.0000000000      -3.1404686342
     -0.6250140706       3.2824863985      -3.1404686342
      0.0000000000       0.0000000000       4.5856191280
Li Sn
1 3
direct
   0.0000000000000000    0.0000000000000000    0.0000000000000000 Li
   0.7500000000000000    0.2500000000000000    0.5000000000000000 Sn
   0.2500000000000000    0.7500000000000000    0.5000000000000000 Sn
   0.5000000000000000    0.5000000000000000    0.0000000000000000 Sn
