K3 Th1
1.0
      4.9807117745       0.0000000000      -5.4249857426
     -0.7553676562       4.9230995810      -5.4249857426
      0.0000000000       0.0000000000       7.3646425635
K Th
3 1
direct
   0.7500000000000000    0.2500000000000000    0.5000000000000000 K
   0.2500000000000000    0.7500000000000000    0.5000000000000000 K
   0.5000000000000000    0.5000000000000000    0.0000000000000000 K
   0.0000000000000000    0.0000000000000000    0.0000000000000000 Th
