K3 Th1
1.0
      4.7185690495       0.0000000000      -5.1394601772
     -0.7156114638       4.6639890768      -5.1394601772
      0.0000000000       0.0000000000       6.9770297970
K Th
3 1
direct
   0.7500000000000000    0.2500000000000000    0.5000000000000000 K
   0.2500000000000000    0.7500000000000000    0.5000000000000000 K
   0.5000000000000000    0.5000000000000000    0.0000000000000000 K
   0.0000000000000000    0.0000000000000000    0.0000000000000000 Th
