K3 Th1
1.0
      3.9321408746       0.0000000000      -4.2828834810
     -0.5963428865       3.8866575640      -4.2828834810
      0.0000000000       0.0000000000       5.8141914975
K Th
3 1
direct
   0.7500000000000000    0.2500000000000000    0.5000000000000000 K
   0.2500000000000000    0.7500000000000000    0.5000000000000000 K
   0.5000000000000000    0.5000000000000000    0.0000000000000000 K
   0.0000000000000000    0.0000000000000000    0.0000000000000000 Th
