K3 Th1
1.0
      4.4564263246       0.0000000000      -4.8539346118
     -0.6758552714       4.4048785725      -4.8539346118
      0.0000000000       0.0000000000       6.5894170305
K Th
3 1
direct
   0.7500000000000000    0.2500000000000000    0.5000000000000000 K
   0.2500000000000000    0.7500000000000000    0.5000000000000000 K
   0.5000000000000000    0.5000000000000000    0.0000000000000000 K
   0.0000000000000000    0.0000000000000000    0.0000000000000000 Th
