K3 Th1
1.0
      4.1942835996       0.0000000000      -4.5684090464
     -0.6360990789       4.1457680682      -4.5684090464
      0.0000000000       0.0000000000       6.2018042640
K Th
3 1
direct
   0.7500000000000000    0.2500000000000000    0.5000000000000000 K
   0.2500000000000000    0.7500000000000000    0.5000000000000000 K
   0.5000000000000000    0.5000000000000000    0.0000000000000000 K
   0.0000000000000000    0.0000000000000000    0.0000000000000000 Th
