Li3 Hg1
1.0
      3.2219676337       0.0000000000      -2.5815034887
     -0.7428595086       3.1351611096      -2.5815034887
      0.0000000000       0.0000000000       4.1285876150
Li Hg
3 1
direct
   0.7500000000000000    0.2500000000000000    0.5000000000000000 Li
   0.2500000000000000    0.7500000000000000    0.5000000000000000 Li
   0.5000010000000000    0.5000010000000000    0.0000000000000000 Li
   0.0000000000000000    0.0000000000000000    0.0000000000000000 Hg
