Li3 Hg1
1.0
      3.6010226494       0.0000000000      -2.8852097815
     -0.8302547449       3.5040035931      -2.8852097815
      0.0000000000       0.0000000000       4.6143038050
Li Hg
3 1
direct
   0.7500000000000000    0.2500000000000000    0.5000000000000000 Li
   0.2500000000000000    0.7500000000000000    0.5000000000000000 Li
   0.5000010000000000    0.5000010000000000    0.0000000000000000 Li
   0.0000000000000000    0.0000000000000000    0.0000000000000000 Hg
