Mg6 P4
1.0
      5.4219852000       0.0000000000       0.0000000000
     -0.0000000000       5.4219852000       0.0000000000
      0.0000000000       0.0000000000       5.4219852000
Mg P
6 4
direct
   0.5000000000000000    0.0000000000000000    0.0000000000000000 Mg
   0.0000000000000000    0.5000000000000000    0.5000000000000000 Mg
   0.5000000000000000    0.5000000000000000    0.0000000000000000 Mg
   0.5000000000000000    0.0000000000000000    0.5000000000000000 Mg
   0.0000000000000000    0.5000000000000000    0.0000000000000000 Mg
   0.0000000000000000    0.0000000000000000    0.5000000000000000 Mg
   0.7500000000000000    0.7500000000000000    0.7500000000000000 P
   0.2500000000000000    0.7500000000000000    0.2500000000000000 P
   0.2500000000000000    0.2500000000000000    0.7500000000000000 P
   0.7500000000000000    0.2500000000000000    0.2500000000000000 P
