K1 Ge1
1.0
      3.9676971407       0.0000000000       2.2907510123
      1.3225657136       3.7407807385       2.2907510123
      0.0000000000       0.0000000000       4.5815020245
K Ge
1 1
direct
   0.0000000000000000    0.0000000000000000    0.0000000000000000 K
   0.5000000000000000    0.5000000000000000    0.5000000000000000 Ge
