K1 Ge1
1.0
      3.7588709754       0.0000000000       2.1701851695
      1.2529569918       3.5438975418       2.1701851695
      0.0000000000       0.0000000000       4.3403703390
K Ge
1 1
direct
   0.0000000000000000    0.0000000000000000    0.0000000000000000 K
   0.5000000000000000    0.5000000000000000    0.5000000000000000 Ge
