K1 Ge1
1.0
      3.5500448101       0.0000000000       2.0496193268
      1.1833482700       3.3470143450       2.0496193268
      0.0000000000       0.0000000000       4.0992386535
K Ge
1 1
direct
   0.0000000000000000    0.0000000000000000    0.0000000000000000 K
   0.5000000000000000    0.5000000000000000    0.5000000000000000 Ge
