K1 Ge1
1.0
      3.3412186448       0.0000000000       1.9290534840
      1.1137395483       3.1501311482       1.9290534840
      0.0000000000       0.0000000000       3.8581069680
K Ge
1 1
direct
   0.0000000000000000    0.0000000000000000    0.0000000000000000 K
   0.5000000000000000    0.5000000000000000    0.5000000000000000 Ge
