K1 Ge1
1.0
      3.1323924795       0.0000000000       1.8084876413
      1.0441308265       2.9532479515       1.8084876413
      0.0000000000       0.0000000000       3.6169752825
K Ge
1 1
direct
   0.0000000000000000    0.0000000000000000    0.0000000000000000 K
   0.5000000000000000    0.5000000000000000    0.5000000000000000 Ge
