Li4 Al8
1.0
      4.9921796885       0.0000000000       2.8822362870
      1.6640598962       4.7066721475       2.8822362870
      0.0000000000       0.0000000000       5.7644725740
Li Al
4 8
direct
   0.8750000000000000    0.8750000000000000    0.8750000000000000 Li
   0.3750000000000000    0.8750000000000000    0.8750000000000000 Li
   0.8750000000000000    0.3750000000000000    0.8750000000000000 Li
   0.8750000000000000    0.8750000000000000    0.3750000000000000 Li
   0.6015270000000000    0.6015270000000000    0.6015270000000000 Al
   0.1954190000000000    0.6015270000000000    0.6015270000000000 Al
   0.6015270000000000    0.1954190000000000    0.6015270000000000 Al
   0.5545810000000000    0.1484730000000000    0.1484730000000000 Al
   0.1484730000000000    0.1484730000000000    0.1484730000000000 Al
   0.6015270000000000    0.6015270000000000    0.1954190000000000 Al
   0.1484730000000000    0.5545810000000000    0.1484730000000000 Al
   0.1484730000000000    0.1484730000000000    0.5545810000000000 Al
