Li2 P6
1.0
      3.8109047670       0.0000000000       0.0000000000
     -1.9054529474       3.3003400140       0.0000000000
      0.0000000000       0.0000000000       7.2347445000
Li P
2 6
direct
   0.3333333333333333    0.6666666666666666    0.2500000000000000 Li
   0.6666666666666666    0.3333333333333333    0.7500000000000000 Li
   0.3333333333333333    0.6666666666666666    0.6068950000000000 P
   0.6666666666666666    0.3333333333333333    0.3931050000000000 P
   0.6666666666666666    0.3333333333333333    0.1068950000000000 P
   0.3333333333333333    0.6666666666666666    0.8931050000000000 P
   0.0000000000000000    0.0000000000000000    0.2500000000000000 P
   0.0000000000000000    0.0000000000000000    0.7500000000000000 P
