Li2 P6
1.0
      4.0226216985       0.0000000000       0.0000000000
     -2.0113114445       3.4836922370       0.0000000000
      0.0000000000       0.0000000000       7.6366747500
Li P
2 6
direct
   0.3333333333333333    0.6666666666666666    0.2500000000000000 Li
   0.6666666666666666    0.3333333333333333    0.7500000000000000 Li
   0.3333333333333333    0.6666666666666666    0.6068950000000000 P
   0.6666666666666666    0.3333333333333333    0.3931050000000000 P
   0.6666666666666666    0.3333333333333333    0.1068950000000000 P
   0.3333333333333333    0.6666666666666666    0.8931050000000000 P
   0.0000000000000000    0.0000000000000000    0.2500000000000000 P
   0.0000000000000000    0.0000000000000000    0.7500000000000000 P
