K3 Sc1
1.0
      5.2546651182       0.0000000000       3.0337823205
      1.7515550394       4.9541457839       3.0337823205
      0.0000000000       0.0000000000       6.0675646410
K Sc
3 1
direct
   0.2500000000000000    0.2500000000000000    0.2500000000000000 K
   0.7500000000000000    0.7500000000000000    0.7500000000000000 K
   0.5000000000000000    0.5000000000000000    0.5000000000000000 K
   0.0000000000000000    0.0000000000000000    0.0000000000000000 Sc
