K3 Sc1
1.0
      5.5465909581       0.0000000000       3.2023257828
      1.8488636527       5.2293761053       3.2023257828
      0.0000000000       0.0000000000       6.4046515655
K Sc
3 1
direct
   0.2500000000000000    0.2500000000000000    0.2500000000000000 K
   0.7500000000000000    0.7500000000000000    0.7500000000000000 K
   0.5000000000000000    0.5000000000000000    0.5000000000000000 K
   0.0000000000000000    0.0000000000000000    0.0000000000000000 Sc
