K3 Sc1
1.0
      4.3788875985       0.0000000000       2.5281519338
      1.4596291995       4.1284548199       2.5281519338
      0.0000000000       0.0000000000       5.0563038675
K Sc
3 1
direct
   0.2500000000000000    0.2500000000000000    0.2500000000000000 K
   0.7500000000000000    0.7500000000000000    0.7500000000000000 K
   0.5000000000000000    0.5000000000000000    0.5000000000000000 K
   0.0000000000000000    0.0000000000000000    0.0000000000000000 Sc
