K3 Sc1
1.0
      4.9627392783       0.0000000000       2.8652388583
      1.6542464261       4.6789154626       2.8652388583
      0.0000000000       0.0000000000       5.7304777165
K Sc
3 1
direct
   0.2500000000000000    0.2500000000000000    0.2500000000000000 K
   0.7500000000000000    0.7500000000000000    0.7500000000000000 K
   0.5000000000000000    0.5000000000000000    0.5000000000000000 K
   0.0000000000000000    0.0000000000000000    0.0000000000000000 Sc
