K3 Sc1
1.0
      4.6708134384       0.0000000000       2.6966953960
      1.5569378128       4.4036851413       2.6966953960
      0.0000000000       0.0000000000       5.3933907920
K Sc
3 1
direct
   0.2500000000000000    0.2500000000000000    0.2500000000000000 K
   0.7500000000000000    0.7500000000000000    0.7500000000000000 K
   0.5000000000000000    0.5000000000000000    0.5000000000000000 K
   0.0000000000000000    0.0000000000000000    0.0000000000000000 Sc
