K3 Zr1
1.0
      4.8591096336       0.0000000000       2.8054082550
      1.6197032112       4.5812124966       2.8054082550
      0.0000000000       0.0000000000       5.6108165100
K Zr
3 1
direct
   0.2500000000000000    0.2500000000000000    0.2500000000000000 K
   0.7500000000000000    0.7500000000000000    0.7500000000000000 K
   0.5000000000000000    0.5000000000000000    0.5000000000000000 K
   0.0000000000000000    0.0000000000000000    0.0000000000000000 Zr
