K3 Zr1
1.0
      4.5732796552       0.0000000000       2.6403842400
      1.5244265517       4.3117294086       2.6403842400
      0.0000000000       0.0000000000       5.2807684800
K Zr
3 1
direct
   0.2500000000000000    0.2500000000000000    0.2500000000000000 K
   0.7500000000000000    0.7500000000000000    0.7500000000000000 K
   0.5000000000000000    0.5000000000000000    0.5000000000000000 K
   0.0000000000000000    0.0000000000000000    0.0000000000000000 Zr
