K3 Zr1
1.0
      5.4307695905       0.0000000000       3.1354562850
      1.8102565302       5.1201786727       3.1354562850
      0.0000000000       0.0000000000       6.2709125700
K Zr
3 1
direct
   0.2500000000000000    0.2500000000000000    0.2500000000000000 K
   0.7500000000000000    0.7500000000000000    0.7500000000000000 K
   0.5000000000000000    0.5000000000000000    0.5000000000000000 K
   0.0000000000000000    0.0000000000000000    0.0000000000000000 Zr
