K3 Zr1
1.0
      5.1449396121       0.0000000000       2.9704322700
      1.7149798707       4.8506955847       2.9704322700
      0.0000000000       0.0000000000       5.9408645400
K Zr
3 1
direct
   0.2500000000000000    0.2500000000000000    0.2500000000000000 K
   0.7500000000000000    0.7500000000000000    0.7500000000000000 K
   0.5000000000000000    0.5000000000000000    0.5000000000000000 K
   0.0000000000000000    0.0000000000000000    0.0000000000000000 Zr
