K3 Zr1
1.0
      4.2874496767       0.0000000000       2.4753602250
      1.4291498922       4.0422463206       2.4753602250
      0.0000000000       0.0000000000       4.9507204500
K Zr
3 1
direct
   0.2500000000000000    0.2500000000000000    0.2500000000000000 K
   0.7500000000000000    0.7500000000000000    0.7500000000000000 K
   0.5000000000000000    0.5000000000000000    0.5000000000000000 K
   0.0000000000000000    0.0000000000000000    0.0000000000000000 Zr
