Mn16 Ga10
1.0
      5.4556872636       0.0000000000      -1.9288767296
     -2.7278436309       4.7247637659      -1.9288767296
      0.0000000000       0.0000000000       5.7866301900
Mn Ga
16 10
direct
   0.2086350000000000    0.0000000000000000    0.0000000000000000 Mn
   0.0000000000000000    0.2086350000000000    0.0000000000000000 Mn
   0.0000000000000000    0.0000000000000000    0.2086360000000000 Mn
   0.7913640000000000    0.7913640000000000    0.7913650000000000 Mn
   0.3486320000000000    0.7228110000000000    0.0000000000000000 Mn
   0.6258200000000000    0.2771890000000000    0.2771890000000000 Mn
   0.3486320000000000    0.0000000000000000    0.7228110000000000 Mn
   0.7228110000000000    0.3486320000000000    0.0000000000000000 Mn
   0.0000000000000000    0.3486320000000000    0.7228110000000000 Mn
   0.2771890000000000    0.6258200000000000    0.2771890000000000 Mn
   0.2771890000000000    0.2771890000000000    0.6258200000000000 Mn
   0.0000000000000000    0.7228110000000000    0.3486320000000000 Mn
   0.7228110000000000    0.0000000000000000    0.3486320000000000 Mn
   0.6513679999999999    0.6513679999999999    0.3741800000000000 Mn
   0.3741800000000000    0.6513679999999999    0.6513679999999999 Mn
   0.6513679999999999    0.3741800000000000    0.6513679999999999 Mn
   0.6501860000000000    0.0000000000000000    0.0000000000000000 Ga
   0.0000000000000000    0.6501860000000000    0.0000000000000000 Ga
   0.0000000000000000    0.0000000000000000    0.6501860000000000 Ga
   0.3498140000000000    0.3498140000000000    0.3498140000000000 Ga
   0.0000000000000000    0.6441960000000000    0.6441960000000000 Ga
   0.3558040000000000    0.0000000000000000    0.3558040000000000 Ga
   0.3558040000000000    0.3558040000000000    0.0000000000000000 Ga
   0.0000000000000000    0.3558040000000000    0.3558040000000000 Ga
   0.6441960000000000    0.0000000000000000    0.6441960000000000 Ga
   0.6441960000000000    0.6441960000000000    0.0000000000000000 Ga
