Li1 Bi1
1.0
      2.4904425225       0.0000000000       0.0000000000
      0.0000000000       2.4904425225       0.0000000000
      0.0000000000       0.0000000000       3.2398411200
Li Bi
1 1
direct
   0.5000000000000000    0.5000000000000000    0.5000000000000000 Li
   0.0000000000000000    0.0000000000000000    0.0000000000000000 Bi
