Hf12 Mn12
1.0
      6.4083222420       0.0000000000       3.6998465715
      2.1361074140       6.0418241512       3.6998465715
      0.0000000000       0.0000000000       7.3996931430
Hf Mn
12 12
direct
   0.4272560000000000    0.8227440000000000    0.8227440000000000 Hf
   0.8227440000000000    0.4272560000000000    0.4272560000000000 Hf
   0.8227440000000000    0.4272560000000000    0.8227440000000000 Hf
   0.4272560000000000    0.8227440000000000    0.4272560000000000 Hf
   0.8227440000000000    0.8227440000000000    0.4272560000000000 Hf
   0.4272560000000000    0.4272560000000000    0.8227440000000000 Hf
   0.5727440000000000    0.1772560000000000    0.1772560000000000 Hf
   0.1772560000000000    0.5727440000000000    0.5727440000000000 Hf
   0.1772560000000000    0.5727440000000000    0.1772560000000000 Hf
   0.5727440000000000    0.1772560000000000    0.5727440000000000 Hf
   0.1772560000000000    0.1772560000000000    0.5727440000000000 Hf
   0.5727440000000000    0.5727440000000000    0.1772560000000000 Hf
   0.0000000000000000    0.0000000000000000    0.5000000000000000 Mn
   0.0000000000000000    0.5000000000000000    0.0000000000000000 Mn
   0.5000000000000000    0.0000000000000000    0.0000000000000000 Mn
   0.0000000000000000    0.0000000000000000    0.0000000000000000 Mn
   0.2022120000000000    0.2022120000000000    0.8933630000000000 Mn
   0.2022120000000000    0.8933630000000000    0.2022120000000000 Mn
   0.8933630000000000    0.2022120000000000    0.2022120000000000 Mn
   0.2022120000000000    0.2022120000000000    0.2022120000000000 Mn
   0.7977880000000001    0.7977880000000001    0.1066370000000000 Mn
   0.7977880000000001    0.1066370000000000    0.7977880000000001 Mn
   0.1066370000000000    0.7977880000000001    0.7977880000000001 Mn
   0.7977880000000001    0.7977880000000001    0.7977880000000001 Mn
