Li2 Cd2
1.0
      3.4691599974       0.0000000000       2.0029202549
      1.1563875447       3.2707552122       2.0029202611
      0.0000000000       0.0000000000       4.0058414015
Li Cd
2 2
direct
   0.6250000000000000    0.6250000000000000    0.6250000000000000 Li
   0.3750000000000000    0.3750000000000000    0.3750000000000000 Li
   0.1250000000000000    0.1250000000000000    0.1250000000000000 Cd
   0.8750000000000000    0.8750000000000000    0.8750000000000000 Cd
