Li2 Cd2
1.0
      3.8772964677       0.0000000000       2.2385579320
      1.2924331382       3.6555499431       2.2385579389
      0.0000000000       0.0000000000       4.4771168605
Li Cd
2 2
direct
   0.6250000000000000    0.6250000000000000    0.6250000000000000 Li
   0.3750000000000000    0.3750000000000000    0.3750000000000000 Li
   0.1250000000000000    0.1250000000000000    0.1250000000000000 Cd
   0.8750000000000000    0.8750000000000000    0.8750000000000000 Cd
