K1 Mg3
1.0
      3.7488066388       0.0000000000      -2.5486240982
     -1.0505109140       3.5986077912      -2.5486240982
      0.0000000000       0.0000000000       4.5331044560
K Mg
1 3
direct
   0.0000000000000000    0.0000000000000000    0.0000000000000000 K
   0.5000000000000000    0.5000000000000000    0.0000000000000000 Mg
   0.7500000000000000    0.2500000000000000    0.5000000000000000 Mg
   0.2500000000000000    0.7500000000000000    0.5000000000000000 Mg
