K1 Mg3
1.0
      4.2174074687       0.0000000000      -2.8672021104
     -1.1818247783       4.0484337651      -2.8672021104
      0.0000000000       0.0000000000       5.0997425130
K Mg
1 3
direct
   0.0000000000000000    0.0000000000000000    0.0000000000000000 K
   0.5000000000000000    0.5000000000000000    0.0000000000000000 Mg
   0.7500000000000000    0.2500000000000000    0.5000000000000000 Mg
   0.2500000000000000    0.7500000000000000    0.5000000000000000 Mg
