K1 Mg3
1.0
      4.4517078836       0.0000000000      -3.0264911166
     -1.2474817104       4.2733467520      -3.0264911166
      0.0000000000       0.0000000000       5.3830615415
K Mg
1 3
direct
   0.0000000000000000    0.0000000000000000    0.0000000000000000 K
   0.5000000000000000    0.5000000000000000    0.0000000000000000 Mg
   0.7500000000000000    0.2500000000000000    0.5000000000000000 Mg
   0.2500000000000000    0.7500000000000000    0.5000000000000000 Mg
