K1 Mg3
1.0
      3.9831070537       0.0000000000      -2.7079131043
     -1.1161678462       3.8235207781      -2.7079131043
      0.0000000000       0.0000000000       4.8164234845
K Mg
1 3
direct
   0.0000000000000000    0.0000000000000000    0.0000000000000000 K
   0.5000000000000000    0.5000000000000000    0.0000000000000000 Mg
   0.7500000000000000    0.2500000000000000    0.5000000000000000 Mg
   0.2500000000000000    0.7500000000000000    0.5000000000000000 Mg
