K1 Mg3
1.0
      3.5145062239       0.0000000000      -2.3893350920
     -0.9848539819       3.3736948042      -2.3893350920
      0.0000000000       0.0000000000       4.2497854275
K Mg
1 3
direct
   0.0000000000000000    0.0000000000000000    0.0000000000000000 K
   0.5000000000000000    0.5000000000000000    0.0000000000000000 Mg
   0.7500000000000000    0.2500000000000000    0.5000000000000000 Mg
   0.2500000000000000    0.7500000000000000    0.5000000000000000 Mg
