Li1 Mg5
1.0
      4.3456531840       0.0000000000       1.0857151153
      3.7025218788       2.2750897416       1.0857151153
      0.0000000000       0.0000000000       5.6093319525
Li Mg
1 5
direct
   0.6107648200000000    0.6107648200000000    0.2790522200000000 Li
   0.0017131600000000    0.0017131600000000    0.0047650800000000 Mg
   0.3312788800000000    0.3312788800000000    0.3318478500000000 Mg
   0.9461629200000000    0.9461629200000000    0.6058106000000000 Mg
   0.6660573100000000    0.6660573100000000    0.6652301400000000 Mg
   0.2773569100000000    0.2773569100000000    0.9466281100000000 Mg
