Li3 Be1
1.0
      3.3390813757       0.0000000000      -3.1256269095
     -0.6280179868       3.2794904851      -3.1256269095
      0.0000000000       0.0000000000       4.5737302075
Li Be
3 1
direct
   0.7500000000000000    0.2500000000000000    0.5000000000000000 Li
   0.2500000000000000    0.7500000000000000    0.5000000000000000 Li
   0.5000000000000000    0.5000000000000000    0.0000000000000000 Li
   0.0000000000000000    0.0000000000000000    0.0000000000000000 Be
