Li3 Be1
1.0
      2.6361168756       0.0000000000      -2.4676001917
     -0.4958036738       2.5890714356      -2.4676001917
      0.0000000000       0.0000000000       3.6108396375
Li Be
3 1
direct
   0.7500000000000000    0.2500000000000000    0.5000000000000000 Li
   0.2500000000000000    0.7500000000000000    0.5000000000000000 Li
   0.5000000000000000    0.5000000000000000    0.0000000000000000 Li
   0.0000000000000000    0.0000000000000000    0.0000000000000000 Be
