Li3 Be1
1.0
      2.9875991257       0.0000000000      -2.7966135506
     -0.5619108303       2.9342809604      -2.7966135506
      0.0000000000       0.0000000000       4.0922849225
Li Be
3 1
direct
   0.7500000000000000    0.2500000000000000    0.5000000000000000 Li
   0.2500000000000000    0.7500000000000000    0.5000000000000000 Li
   0.5000000000000000    0.5000000000000000    0.0000000000000000 Li
   0.0000000000000000    0.0000000000000000    0.0000000000000000 Be
