Li3 Cu1
1.0
      2.7246305553       0.0000000000      -2.1072869382
     -0.6562424730       2.6444200648      -2.1072869382
      0.0000000000       0.0000000000       3.4444549500
Li Cu
3 1
direct
   0.7499980000000001    0.2500000000000000    0.4999980000000000 Li
   0.2500000000000000    0.7499980000000001    0.4999980000000000 Li
   0.5000000000000000    0.5000000000000000    0.0000000000000000 Li
   0.0000000000000000    0.0000000000000000    0.0000000000000000 Cu
