Dy1 Zn12
1.0
      5.3062589379       0.0000000000      -0.7764441764
     -3.9640620293       3.5274064330      -0.7764441764
      0.0000000000       0.0000000000       5.3627650960
Dy Zn
1 12
direct
   0.0000000000000000    0.0000000000000000    0.0000000000000000 Dy
   0.0000000000000000    0.0000000000000000    0.5000000000000000 Zn
   0.5000000000000000    0.5000000000000000    0.5000000000000000 Zn
   0.5000000000000000    0.0000000000000000    0.0000000000000000 Zn
   0.0000000000000000    0.5000000000000000    0.0000000000000000 Zn
   0.0000000000000000    0.3538088200000000    0.3538088200000000 Zn
   0.0000000000000000    0.6461911800000000    0.6461911800000000 Zn
   0.6461911800000000    0.0000000000000000    0.6461911800000000 Zn
   0.3538088200000000    0.0000000000000000    0.3538088200000000 Zn
   0.5000000000000000    0.2832743300000000    0.7832743300000000 Zn
   0.5000000000000000    0.7167256700000000    0.2167256700000000 Zn
   0.7167256700000000    0.5000000000000000    0.2167256700000000 Zn
   0.2832743300000000    0.5000000000000000    0.7832743300000000 Zn
