Rb3 Li1
1.0
      5.9917257025       0.0000000000       3.4593244473
      1.9972419008       5.6490531670       3.4593244473
      0.0000000000       0.0000000000       6.9186488945
Rb Li
3 1
direct
   0.2500000000000000    0.2500000000000000    0.2500000000000000 Rb
   0.7500000000000000    0.7500000000000000    0.7500000000000000 Rb
   0.5000000000000000    0.5000000000000000    0.5000000000000000 Rb
   0.0000000000000000    0.0000000000000000    0.0000000000000000 Li
