Rb3 Li1
1.0
      5.0456637495       0.0000000000       2.9131153240
      1.6818879165       4.7570974038       2.9131153240
      0.0000000000       0.0000000000       5.8262306480
Rb Li
3 1
direct
   0.2500000000000000    0.2500000000000000    0.2500000000000000 Rb
   0.7500000000000000    0.7500000000000000    0.7500000000000000 Rb
   0.5000000000000000    0.5000000000000000    0.5000000000000000 Rb
   0.0000000000000000    0.0000000000000000    0.0000000000000000 Li
