Li3 Pm1
1.0
      3.3464056234       0.0000000000       1.9320481875
      1.1154685411       3.1550214786       1.9320481875
      0.0000000000       0.0000000000       3.8640963750
Li Pm
3 1
direct
   0.2500000000000000    0.2500000000000000    0.2500000000000000 Li
   0.7500000000000000    0.7500000000000000    0.7500000000000000 Li
   0.5000000000000000    0.5000000000000000    0.5000000000000000 Li
   0.0000000000000000    0.0000000000000000    0.0000000000000000 Pm
