Li3 Pm1
1.0
      3.7925930399       0.0000000000       2.1896546125
      1.2641976800       3.5756910090       2.1896546125
      0.0000000000       0.0000000000       4.3793092250
Li Pm
3 1
direct
   0.2500000000000000    0.2500000000000000    0.2500000000000000 Li
   0.7500000000000000    0.7500000000000000    0.7500000000000000 Li
   0.5000000000000000    0.5000000000000000    0.5000000000000000 Li
   0.0000000000000000    0.0000000000000000    0.0000000000000000 Pm
