Li3 Pm1
1.0
      4.0156867481       0.0000000000       2.3184578250
      1.3385622494       3.7860257743       2.3184578250
      0.0000000000       0.0000000000       4.6369156500
Li Pm
3 1
direct
   0.2500000000000000    0.2500000000000000    0.2500000000000000 Li
   0.7500000000000000    0.7500000000000000    0.7500000000000000 Li
   0.5000000000000000    0.5000000000000000    0.5000000000000000 Li
   0.0000000000000000    0.0000000000000000    0.0000000000000000 Pm
