Cu2 H2
1.0
      2.2719178400       0.0000000000       0.0000000000
     -1.1359583572       1.9675388897       0.0000000000
      0.0000000000       0.0000000000       3.7482216000
Cu H
2 2
direct
   0.3333333333333333    0.6666666666666666    0.2763760000000000 Cu
   0.6666666666666666    0.3333333333333333    0.7236240000000000 Cu
   0.3333333333333333    0.6666666666666666    0.8133820000000000 H
   0.6666666666666666    0.3333333333333333    0.1866180000000000 H
