K1 H3
1.0
      3.0906693153       0.0000000000      -1.9654913177
     -0.9320076164       2.9467946348      -1.9654913177
      0.0000000000       0.0000000000       3.6627029550
K H
1 3
direct
   0.0000000000000000    0.0000000000000000    0.0000000000000000 K
   0.7500000000000000    0.2500000000000000    0.5000000000000000 H
   0.2500000000000000    0.7500000000000000    0.5000000000000000 H
   0.5000000000000000    0.5000000000000000    0.0000000000000000 H
