K1 H3
1.0
      3.2724733927       0.0000000000      -2.0811084540
     -0.9868315939       3.1201354957      -2.0811084540
      0.0000000000       0.0000000000       3.8781560700
K H
1 3
direct
   0.0000000000000000    0.0000000000000000    0.0000000000000000 K
   0.7500000000000000    0.2500000000000000    0.5000000000000000 H
   0.2500000000000000    0.7500000000000000    0.5000000000000000 H
   0.5000000000000000    0.5000000000000000    0.0000000000000000 H
