K1 H3
1.0
      3.4542774701       0.0000000000      -2.1967255903
     -1.0416555713       3.2934763565      -2.1967255903
      0.0000000000       0.0000000000       4.0936091850
K H
1 3
direct
   0.0000000000000000    0.0000000000000000    0.0000000000000000 K
   0.7500000000000000    0.2500000000000000    0.5000000000000000 H
   0.2500000000000000    0.7500000000000000    0.5000000000000000 H
   0.5000000000000000    0.5000000000000000    0.0000000000000000 H
