K1 H3
1.0
      2.7270611606       0.0000000000      -1.7342570450
     -0.8223596615       2.6001129131      -1.7342570450
      0.0000000000       0.0000000000       3.2317967250
K H
1 3
direct
   0.0000000000000000    0.0000000000000000    0.0000000000000000 K
   0.7500000000000000    0.2500000000000000    0.5000000000000000 H
   0.2500000000000000    0.7500000000000000    0.5000000000000000 H
   0.5000000000000000    0.5000000000000000    0.0000000000000000 H
