K1 H3
1.0
      2.9088652380       0.0000000000      -1.8498741813
     -0.8771836390       2.7734537739      -1.8498741813
      0.0000000000       0.0000000000       3.4472498400
K H
1 3
direct
   0.0000000000000000    0.0000000000000000    0.0000000000000000 K
   0.7500000000000000    0.2500000000000000    0.5000000000000000 H
   0.2500000000000000    0.7500000000000000    0.5000000000000000 H
   0.5000000000000000    0.5000000000000000    0.0000000000000000 H
