K3 V1
1.0
      4.5157783674       0.0000000000       2.6071858560
      1.5052594558       4.2575166745       2.6071858560
      0.0000000000       0.0000000000       5.2143717120
K V
3 1
direct
   0.2500000000000000    0.2500000000000000    0.2500000000000000 K
   0.7500000000000000    0.7500000000000000    0.7500000000000000 K
   0.5000000000000000    0.5000000000000000    0.5000000000000000 K
   0.0000000000000000    0.0000000000000000    0.0000000000000000 V
