K3 V1
1.0
      5.0802506633       0.0000000000       2.9330840880
      1.6934168878       4.7897062589       2.9330840880
      0.0000000000       0.0000000000       5.8661681760
K V
3 1
direct
   0.2500000000000000    0.2500000000000000    0.2500000000000000 K
   0.7500000000000000    0.7500000000000000    0.7500000000000000 K
   0.5000000000000000    0.5000000000000000    0.5000000000000000 K
   0.0000000000000000    0.0000000000000000    0.0000000000000000 V
