K3 V1
1.0
      4.2335422194       0.0000000000       2.4442367400
      1.4111807398       3.9914218824       2.4442367400
      0.0000000000       0.0000000000       4.8884734800
K V
3 1
direct
   0.2500000000000000    0.2500000000000000    0.2500000000000000 K
   0.7500000000000000    0.7500000000000000    0.7500000000000000 K
   0.5000000000000000    0.5000000000000000    0.5000000000000000 K
   0.0000000000000000    0.0000000000000000    0.0000000000000000 V
