K3 V1
1.0
      4.7980145153       0.0000000000       2.7701349720
      1.5993381718       4.5236114667       2.7701349720
      0.0000000000       0.0000000000       5.5402699440
K V
3 1
direct
   0.2500000000000000    0.2500000000000000    0.2500000000000000 K
   0.7500000000000000    0.7500000000000000    0.7500000000000000 K
   0.5000000000000000    0.5000000000000000    0.5000000000000000 K
   0.0000000000000000    0.0000000000000000    0.0000000000000000 V
