K3 V1
1.0
      5.3624868112       0.0000000000       3.0960332040
      1.7874956037       5.0558010510       3.0960332040
      0.0000000000       0.0000000000       6.1920664080
K V
3 1
direct
   0.2500000000000000    0.2500000000000000    0.2500000000000000 K
   0.7500000000000000    0.7500000000000000    0.7500000000000000 K
   0.5000000000000000    0.5000000000000000    0.5000000000000000 K
   0.0000000000000000    0.0000000000000000    0.0000000000000000 V
