Nd1 Zn1
1.0
      3.3036890760       0.0000000000       0.0000000000
     -0.0000000000       3.3036890760       0.0000000000
      0.0000000000       0.0000000000       3.3036890760
Nd Zn
1 1
direct
   0.0000000000000000    0.0000000000000000    0.0000000000000000 Nd
   0.5000000000000000    0.5000000000000000    0.5000000000000000 Zn
