Cu1 Ni1
1.0
      2.1008295785       0.0000000000       0.0000000000
     -1.0503611420       1.8194027562       0.0000000000
      0.0000000000       0.0000000000       3.4849776450
Cu Ni
1 1
direct
   0.3333333333333333    0.6666666666666666    0.5000000000000000 Cu
   0.0000003100000000    0.9999996900000000    0.0000000000000000 Ni
