Cu1 Ni1
1.0
      1.8536731575       0.0000000000       0.0000000000
     -0.9267892429       1.6053553731       0.0000000000
      0.0000000000       0.0000000000       3.0749802750
Cu Ni
1 1
direct
   0.3333333333333333    0.6666666666666666    0.5000000000000000 Cu
   0.0000003100000000    0.9999996900000000    0.0000000000000000 Ni
