Li2 Mg4
1.0
      2.9924486240       0.0000000000       0.0000000000
     -1.4962252795       2.5915359693       0.0000000000
      0.0000000000       0.0000000000      14.4684021120
Li Mg
2 4
direct
   0.3333333333333333    0.6666666666666666    0.5824830700000000 Li
   0.6666666666666666    0.3333333333333333    0.4175169300000000 Li
   0.3333333333333333    0.6666666666666666    0.9159793300000000 Mg
   0.6666666666666666    0.3333333333333333    0.7461219000000000 Mg
   0.3333333333333333    0.6666666666666666    0.2538781000000000 Mg
   0.6666666666666666    0.3333333333333333    0.0840206700000000 Mg
