Cu1 S1
1.0
      2.7172509975       0.0000000000       0.0000000000
     -1.3586249985       2.3532086811       0.0000000000
      0.0000000000       0.0000000000       3.9902670000
Cu S
1 1
direct
   0.3333333333333333    0.6666666666666666    0.9842140000000000 Cu
   0.6666666666666666    0.3333333333333333    0.8916460000000000 S
