Cu1 S1
1.0
      3.4418512635       0.0000000000       0.0000000000
     -1.7209249981       2.9807309961       0.0000000000
      0.0000000000       0.0000000000       5.0543382000
Cu S
1 1
direct
   0.3333333333333333    0.6666666666666666    0.9842140000000000 Cu
   0.6666666666666666    0.3333333333333333    0.8916460000000000 S
