Cu1 S1
1.0
      2.8984010640       0.0000000000       0.0000000000
     -1.4491999984       2.5100892599       0.0000000000
      0.0000000000       0.0000000000       4.2562848000
Cu S
1 1
direct
   0.3333333333333333    0.6666666666666666    0.9842140000000000 Cu
   0.6666666666666666    0.3333333333333333    0.8916460000000000 S
