Cu1 S1
1.0
      3.0795511305       0.0000000000       0.0000000000
     -1.5397749983       2.6669698386       0.0000000000
      0.0000000000       0.0000000000       4.5223026000
Cu S
1 1
direct
   0.3333333333333333    0.6666666666666666    0.9842140000000000 Cu
   0.6666666666666666    0.3333333333333333    0.8916460000000000 S
