Li1 C6
1.0
      3.2845535100       0.0000000000       0.0000000000
     -0.0000000000       3.3569214118      -1.9381193198
      0.0000000000       0.0000000000       3.8762388810
Li C
1 6
direct
   0.0000000000000000    0.0000000000000000    0.0000000000000000 Li
   0.5000000000000000    0.0000000000000000    0.3336124000000000 C
   0.5000000000000000    0.3336124000000000    0.0000000000000000 C
   0.5000000000000000    0.6663876000000000    0.6663876000000000 C
   0.5000000000000000    0.0000000000000000    0.6663876000000000 C
   0.5000000000000000    0.6663876000000000    0.0000000000000000 C
   0.5000000000000000    0.3336124000000000    0.3336124000000000 C
