Li1 C6
1.0
      3.1020783150       0.0000000000       0.0000000000
     -0.0000000000       3.1704257778      -1.8304460243
      0.0000000000       0.0000000000       3.6608922765
Li C
1 6
direct
   0.0000000000000000    0.0000000000000000    0.0000000000000000 Li
   0.5000000000000000    0.0000000000000000    0.3336124000000000 C
   0.5000000000000000    0.3336124000000000    0.0000000000000000 C
   0.5000000000000000    0.6663876000000000    0.6663876000000000 C
   0.5000000000000000    0.0000000000000000    0.6663876000000000 C
   0.5000000000000000    0.6663876000000000    0.0000000000000000 C
   0.5000000000000000    0.3336124000000000    0.3336124000000000 C
