Li1 C6
1.0
      3.4670287050       0.0000000000       0.0000000000
     -0.0000000000       3.5434170458      -2.0457926154
      0.0000000000       0.0000000000       4.0915854855
Li C
1 6
direct
   0.0000000000000000    0.0000000000000000    0.0000000000000000 Li
   0.5000000000000000    0.0000000000000000    0.3336124000000000 C
   0.5000000000000000    0.3336124000000000    0.0000000000000000 C
   0.5000000000000000    0.6663876000000000    0.6663876000000000 C
   0.5000000000000000    0.0000000000000000    0.6663876000000000 C
   0.5000000000000000    0.6663876000000000    0.0000000000000000 C
   0.5000000000000000    0.3336124000000000    0.3336124000000000 C
