Li1 U1
1.0
      2.7032858000       0.0000000000       0.0000000000
     -1.3515749669       2.3411500726      -0.0000004161
      0.0000000000       0.0000000000       5.3452690500
Li U
1 1
direct
   0.6666666666666666    0.3333333333333333    0.7500000000000000 Li
   0.3333333333333333    0.6666666666666666    0.2500000000000000 U
