K1 Cl1
1.0
      3.4552764000       0.0000000000       0.0000000000
     -0.0000000000       3.4552764000       0.0000000000
      0.0000000000       0.0000000000       3.4552764000
K Cl
1 1
direct
   0.0000000000000000    0.0000000000000000    0.0000000000000000 K
   0.5000000000000000    0.5000000000000000    0.5000000000000000 Cl
