Li3 Mg1
1.0
      2.4410041840       0.0000000000       0.0000000000
     -0.0000000000       4.0442136960       0.0000000000
      0.0000000000       0.0000000000       4.2215544800
Li Mg
3 1
direct
   0.0000000000000000    0.0000000000000000    0.9945255000000000 Li
   0.5000000000000000    0.0000000000000000    0.4934036100000000 Li
   0.5000000000000000    0.5000000000000000    0.8360069900000000 Li
   0.0000000000000000    0.5000000000000000    0.3427309000000000 Mg
