Li3 Ga1
1.0
      3.0822122634       0.0000000000       1.7795160800
      1.0274040878       2.9059375901       1.7795160800
      0.0000000000       0.0000000000       3.5590321600
Li Ga
3 1
direct
   0.0000000000000000    0.0000000000000000    0.0000000000000000 Li
   0.5000000000000000    0.5000000000000000    0.5000000000000000 Li
   0.2500010000000000    0.2500010000000000    0.2500010000000000 Li
   0.7500010000000000    0.7500010000000000    0.7500010000000000 Ga
