Li3 Ga1
1.0
      3.2748505299       0.0000000000       1.8907358350
      1.0916168433       3.0875586894       1.8907358350
      0.0000000000       0.0000000000       3.7814716700
Li Ga
3 1
direct
   0.0000000000000000    0.0000000000000000    0.0000000000000000 Li
   0.5000000000000000    0.5000000000000000    0.5000000000000000 Li
   0.2500010000000000    0.2500010000000000    0.2500010000000000 Li
   0.7500010000000000    0.7500010000000000    0.7500010000000000 Ga
