Cu2 O4
1.0
      2.3177845794       0.0000000000      -0.6283431651
     -0.0000000000       3.6919104000       0.0000000000
      0.0000000000       0.0000000000       4.5890055085
Cu O
2 4
direct
   0.8327470000000000    0.2500000000000000    0.6654940000000000 Cu
   0.1672530000000000    0.7500000000000000    0.3345060000000000 Cu
   0.4485140000000000    0.2500000000000000    0.8970280000000000 O
   0.5514860000000000    0.7500000000000000    0.1029720000000000 O
   0.2110300000000000    0.2500000000000000    0.4220600000000000 O
   0.7889699999999999    0.7500000000000000    0.5779400000000000 O
