Li3 Zn1
1.0
      2.9135405096       0.0000000000       1.6821333975
      0.9711801699       2.7469123354       1.6821333975
      0.0000000000       0.0000000000       3.3642667950
Li Zn
3 1
direct
   0.0000000000000000    0.0000000000000000    0.0000000000000000 Li
   0.4999990000000000    0.4999990000000000    0.4999990000000000 Li
   0.2500010000000000    0.2500010000000000    0.2500010000000000 Li
   0.7500000000000000    0.7500000000000000    0.7500000000000000 Zn
