Li3 Zn1
1.0
      3.1077765436       0.0000000000       1.7942756240
      1.0359255145       2.9300398245       1.7942756240
      0.0000000000       0.0000000000       3.5885512480
Li Zn
3 1
direct
   0.0000000000000000    0.0000000000000000    0.0000000000000000 Li
   0.4999990000000000    0.4999990000000000    0.4999990000000000 Li
   0.2500010000000000    0.2500010000000000    0.2500010000000000 Li
   0.7500000000000000    0.7500000000000000    0.7500000000000000 Zn
