Al4 Cu2
1.0
      3.1259292319       0.0000000000       1.7635894788
      1.5629642416       3.1808110848       0.8817939936
      0.0000000000       0.0000000000       3.6521206875
Al Cu
4 2
direct
   0.1586059100000000    0.5000000000000000    0.1827861700000000 Al
   0.3413940900000000    0.8172138300000000    0.5000000000000000 Al
   0.6586059100000000    0.1827861700000000    0.5000000000000000 Al
   0.8413940900000000    0.5000000000000000    0.8172138300000000 Al
   0.2500000000000000    0.0000000000000000    0.0000000000000000 Cu
   0.7500000000000000    0.0000000000000000    0.0000000000000000 Cu
