K3 W1
1.0
      3.9886549681       0.0000000000      -3.1706058339
     -0.9287486974       3.8790197617      -3.1706058339
      0.0000000000       0.0000000000       5.0953027200
K W
3 1
direct
   0.7500000000000000    0.2500000000000000    0.5000000000000000 K
   0.2500000000000000    0.7500000000000000    0.5000000000000000 K
   0.5000000000000000    0.5000000000000000    0.0000000000000000 K
   0.0000000000000000    0.0000000000000000    0.0000000000000000 W
