K3 W1
1.0
      4.5204756305       0.0000000000      -3.5933532784
     -1.0525818570       4.3962223966      -3.5933532784
      0.0000000000       0.0000000000       5.7746764160
K W
3 1
direct
   0.7500000000000000    0.2500000000000000    0.5000000000000000 K
   0.2500000000000000    0.7500000000000000    0.5000000000000000 K
   0.5000000000000000    0.5000000000000000    0.0000000000000000 K
   0.0000000000000000    0.0000000000000000    0.0000000000000000 W
