K3 W1
1.0
      5.0522962930       0.0000000000      -4.0161007229
     -1.1764150166       4.9134250315      -4.0161007229
      0.0000000000       0.0000000000       6.4540501120
K W
3 1
direct
   0.7500000000000000    0.2500000000000000    0.5000000000000000 K
   0.2500000000000000    0.7500000000000000    0.5000000000000000 K
   0.5000000000000000    0.5000000000000000    0.0000000000000000 K
   0.0000000000000000    0.0000000000000000    0.0000000000000000 W
