K3 W1
1.0
      4.2545652993       0.0000000000      -3.3819795561
     -0.9906652772       4.1376210792      -3.3819795561
      0.0000000000       0.0000000000       5.4349895680
K W
3 1
direct
   0.7500000000000000    0.2500000000000000    0.5000000000000000 K
   0.2500000000000000    0.7500000000000000    0.5000000000000000 K
   0.5000000000000000    0.5000000000000000    0.0000000000000000 K
   0.0000000000000000    0.0000000000000000    0.0000000000000000 W
