K3 W1
1.0
      4.7863859618       0.0000000000      -3.8047270006
     -1.1144984368       4.6548237141      -3.8047270006
      0.0000000000       0.0000000000       6.1143632640
K W
3 1
direct
   0.7500000000000000    0.2500000000000000    0.5000000000000000 K
   0.2500000000000000    0.7500000000000000    0.5000000000000000 K
   0.5000000000000000    0.5000000000000000    0.0000000000000000 K
   0.0000000000000000    0.0000000000000000    0.0000000000000000 W
