Li6 Ga14
1.0
      5.2210860612       0.0000000000       2.0522791119
      1.3984335262       5.0303194938       2.0522793661
      0.0000000000       0.0000000000       5.6099544975
Li Ga
6 14
direct
   0.4766068800000000    0.8809435900000000    0.8809435900000000 Li
   0.8809435900000000    0.4766068800000000    0.8809435900000000 Li
   0.1190564100000000    0.5233931200000000    0.1190564100000000 Li
   0.8809435900000000    0.8809435900000000    0.4766068800000000 Li
   0.1190564100000000    0.1190564100000000    0.5233931200000000 Li
   0.5233931200000000    0.1190564100000000    0.1190564100000000 Li
   0.1737582200000000    0.4906685900000000    0.4906685900000000 Ga
   0.1831586100000000    0.7042710300000000    0.7042710300000000 Ga
   0.2957289700000000    0.2957289700000000    0.8168413900000000 Ga
   0.8262417800000000    0.5093314100000000    0.5093314100000000 Ga
   0.7042710300000000    0.7042710300000000    0.1831586100000000 Ga
   0.5093314100000000    0.8262417800000000    0.5093314100000000 Ga
   0.8168413900000000    0.2957289700000000    0.2957289700000000 Ga
   0.0775067900000000    0.0775067900000000    0.0775067900000000 Ga
   0.5093314100000000    0.5093314100000000    0.8262417800000000 Ga
   0.2957289700000000    0.8168413900000000    0.2957289700000000 Ga
   0.4906685900000000    0.1737582200000000    0.4906685900000000 Ga
   0.7042710300000000    0.1831586100000000    0.7042710300000000 Ga
   0.4906685900000000    0.4906685900000000    0.1737582200000000 Ga
   0.9224932100000000    0.9224932100000000    0.9224932100000000 Ga
