Hf2 Zn4
1.0
      4.0135943514       0.0000000000       2.3172498623
      1.3378650928       3.7840538602       2.3172498628
      0.0000000000       0.0000000000       4.6344997350
Hf Zn
2 4
direct
   0.1250000000000000    0.1250000000000000    0.1250000000000000 Hf
   0.8750000000000000    0.8750000000000000    0.8750000000000000 Hf
   0.5000000000000000    0.0000000000000000    0.5000000000000000 Zn
   0.0000000000000000    0.5000000000000000    0.5000000000000000 Zn
   0.5000000000000000    0.5000000000000000    0.5000000000000000 Zn
   0.5000000000000000    0.5000000000000000    0.0000000000000000 Zn
