Hf2 Zn4
1.0
      3.3446619595       0.0000000000       1.9310415520
      1.1148875773       3.1533782168       1.9310415523
      0.0000000000       0.0000000000       3.8620831125
Hf Zn
2 4
direct
   0.1250000000000000    0.1250000000000000    0.1250000000000000 Hf
   0.8750000000000000    0.8750000000000000    0.8750000000000000 Hf
   0.5000000000000000    0.0000000000000000    0.5000000000000000 Zn
   0.0000000000000000    0.5000000000000000    0.5000000000000000 Zn
   0.5000000000000000    0.5000000000000000    0.5000000000000000 Zn
   0.5000000000000000    0.5000000000000000    0.0000000000000000 Zn
