Hf2 Zn4
1.0
      3.7906168875       0.0000000000       2.1885137589
      1.2635392543       3.5738286457       2.1885137593
      0.0000000000       0.0000000000       4.3770275275
Hf Zn
2 4
direct
   0.1250000000000000    0.1250000000000000    0.1250000000000000 Hf
   0.8750000000000000    0.8750000000000000    0.8750000000000000 Hf
   0.5000000000000000    0.0000000000000000    0.5000000000000000 Zn
   0.0000000000000000    0.5000000000000000    0.5000000000000000 Zn
   0.5000000000000000    0.5000000000000000    0.5000000000000000 Zn
   0.5000000000000000    0.5000000000000000    0.0000000000000000 Zn
