Li4 Ga8
1.0
      4.4908920475       0.0000000000       2.5928177325
      1.4969640158       4.2340536271       2.5928177325
      0.0000000000       0.0000000000       5.1856354650
Li Ga
4 8
direct
   0.8750000000000000    0.8750000000000000    0.8750000000000000 Li
   0.3750000000000000    0.8750000000000000    0.8750000000000000 Li
   0.8750000000000000    0.3750000000000000    0.8750000000000000 Li
   0.8750000000000000    0.8750000000000000    0.3750000000000000 Li
   0.6000560000000000    0.6000560000000000    0.6000560000000000 Ga
   0.1998320000000000    0.6000560000000000    0.6000560000000000 Ga
   0.6000560000000000    0.1998320000000000    0.6000560000000000 Ga
   0.5501680000000000    0.1499440000000000    0.1499440000000000 Ga
   0.1499440000000000    0.1499440000000000    0.1499440000000000 Ga
   0.6000560000000000    0.6000560000000000    0.1998320000000000 Ga
   0.1499440000000000    0.5501680000000000    0.1499440000000000 Ga
   0.1499440000000000    0.1499440000000000    0.5501680000000000 Ga
