K6 Pu6
1.0
      3.3546751660       0.0000000000      -2.9891882422
     -1.1416967707      10.1030054440       0.1034864156
      0.0000000000       0.0000000000       6.3771030075
K Pu
6 6
direct
   0.1855560000000000    0.8559900000000000    0.2017620000000000 K
   0.4244510000000000    0.3309810000000000    0.8922810000000000 K
   0.1279600000000000    0.8682530000000001    0.6854789999999999 K
   0.8144439999999999    0.1440100000000000    0.7982380000000000 K
   0.5755490000000000    0.6690190000000000    0.1077190000000000 K
   0.8720400000000000    0.1317470000000000    0.3145210000000000 K
   0.0888820000000000    0.4902570000000000    0.1695780000000000 Pu
   0.4571720000000000    0.3853590000000000    0.3257140000000000 Pu
   0.1740380000000000    0.4839630000000000    0.4859450000000000 Pu
   0.9111180000000000    0.5097429999999999    0.8304220000000000 Pu
   0.5428280000000000    0.6146410000000000    0.6742860000000001 Pu
   0.8259620000000000    0.5160370000000000    0.5140550000000000 Pu
