Cu2 I2
1.0
      4.2111244880       0.0000000000       0.0000000000
      0.0249819385       4.2110503863       0.0000000000
      0.0000000000       0.0000000000       3.4455981360
Cu I
2 2
direct
   0.4204388300000000    0.5795611700000000    0.7500000000000000 Cu
   0.5795611700000000    0.4204388300000000    0.2500000000000000 Cu
   0.7700426800000000    0.2299573200000000    0.7500000000000000 I
   0.2299573200000000    0.7700426800000000    0.2500000000000000 I
