Cu2 I2
1.0
      4.7375150490       0.0000000000       0.0000000000
      0.0281046808       4.7374316846       0.0000000000
      0.0000000000       0.0000000000       3.8762979030
Cu I
2 2
direct
   0.4204388300000000    0.5795611700000000    0.7500000000000000 Cu
   0.5795611700000000    0.4204388300000000    0.2500000000000000 Cu
   0.7700426800000000    0.2299573200000000    0.7500000000000000 I
   0.2299573200000000    0.7700426800000000    0.2500000000000000 I
