Y2 Zn17
1.0
      5.9818211760       0.0000000000       0.7402381876
      0.6542815888       5.9459311520       0.7402384744
      0.0000000000       0.0000000000       6.0274495260
Y Zn
2 17
direct
   0.6642379100000000    0.6642379100000000    0.6642379100000000 Y
   0.3357620900000000    0.3357620900000000    0.3357620900000000 Y
   0.3503514900000000    0.3503514900000000    0.8389435400000000 Zn
   0.3503514900000000    0.8389435400000000    0.3503514900000000 Zn
   0.0993838200000000    0.0993838200000000    0.0993838200000000 Zn
   0.9006161800000000    0.9006161800000000    0.9006161800000000 Zn
   0.0000000000000000    0.0000000000000000    0.5000000000000000 Zn
   0.5000000000000000    0.0000000000000000    0.0000000000000000 Zn
   0.0000000000000000    0.5000000000000000    0.0000000000000000 Zn
   0.7042872500000000    0.2957127500000000    0.0000000000000000 Zn
   0.0000000000000000    0.7042872500000000    0.2957127500000000 Zn
   0.2957127500000000    0.0000000000000000    0.7042872500000000 Zn
   0.2957127500000000    0.7042872500000000    0.0000000000000000 Zn
   0.0000000000000000    0.2957127500000000    0.7042872500000000 Zn
   0.7042872500000000    0.0000000000000000    0.2957127500000000 Zn
   0.6496485100000000    0.1610564600000000    0.6496485100000000 Zn
   0.6496485100000000    0.6496485100000000    0.1610564600000000 Zn
   0.1610564600000000    0.6496485100000000    0.6496485100000000 Zn
   0.8389435400000000    0.3503514900000000    0.3503514900000000 Zn
