Li1 F1
1.0
      2.1254912984       0.0000000000       1.2271534991
      0.7084970994       2.0039327990       1.2271534994
      0.0000000000       0.0000000000       2.4543061500
Li F
1 1
direct
   0.0000000000000000    0.0000000000000000    0.0000000000000000 Li
   0.5000000000000000    0.5000000000000000    0.5000000000000000 F
