Li1 F1
1.0
      2.2505201983       0.0000000000       1.2993389990
      0.7501733993       2.1218111989       1.2993389994
      0.0000000000       0.0000000000       2.5986771000
Li F
1 1
direct
   0.0000000000000000    0.0000000000000000    0.0000000000000000 Li
   0.5000000000000000    0.5000000000000000    0.5000000000000000 F
