Li1 F1
1.0
      1.8754334986       0.0000000000       1.0827824992
      0.6251444995       1.7681759991       1.0827824995
      0.0000000000       0.0000000000       2.1655642500
Li F
1 1
direct
   0.0000000000000000    0.0000000000000000    0.0000000000000000 Li
   0.5000000000000000    0.5000000000000000    0.5000000000000000 F
