Cs1 K3
1.0
      5.2757204550       0.0000000000       0.0000000000
     -0.0000000000       5.2757204550       0.0000000000
      0.0000000000       0.0000000000       5.2757204550
Cs K
1 3
direct
   0.0000000000000000    0.0000000000000000    0.0000000000000000 Cs
   0.0000000000000000    0.5000000000000000    0.5000000000000000 K
   0.5000000000000000    0.0000000000000000    0.5000000000000000 K
   0.5000000000000000    0.5000000000000000    0.0000000000000000 K
