Mn1 Ni1
1.0
      1.8994575100       0.0000000000       2.9143553240
      0.8658902501       1.6906131749       2.9143553240
      0.0000000000       0.0000000000       3.4787075200
Mn Ni
1 1
direct
   0.0000000000000000    0.0000000000000000    0.0000000000000000 Mn
   0.5000000000000000    0.5000000000000000    0.5000000000000000 Ni
