Mn1 Ni1
1.0
      2.2556057931       0.0000000000       3.4607969473
      1.0282446720       2.0076031452       3.4607969473
      0.0000000000       0.0000000000       4.1309651800
Mn Ni
1 1
direct
   0.0000000000000000    0.0000000000000000    0.0000000000000000 Mn
   0.5000000000000000    0.5000000000000000    0.5000000000000000 Ni
