Mn1 Ni1
1.0
      2.0181736044       0.0000000000       3.0965025318
      0.9200083907       1.7962764983       3.0965025318
      0.0000000000       0.0000000000       3.6961267400
Mn Ni
1 1
direct
   0.0000000000000000    0.0000000000000000    0.0000000000000000 Mn
   0.5000000000000000    0.5000000000000000    0.5000000000000000 Ni
