Mn1 Ni1
1.0
      1.7807414156       0.0000000000       2.7322081163
      0.8117721095       1.5849498515       2.7322081163
      0.0000000000       0.0000000000       3.2612883000
Mn Ni
1 1
direct
   0.0000000000000000    0.0000000000000000    0.0000000000000000 Mn
   0.5000000000000000    0.5000000000000000    0.5000000000000000 Ni
