Mn1 Ni1
1.0
      2.1368896988       0.0000000000       3.2786497395
      0.9741265314       1.9019398217       3.2786497395
      0.0000000000       0.0000000000       3.9135459600
Mn Ni
1 1
direct
   0.0000000000000000    0.0000000000000000    0.0000000000000000 Mn
   0.5000000000000000    0.5000000000000000    0.5000000000000000 Ni
