Cu5 Ge2
1.0
      3.7513979757       0.0000000000       5.5950316619
      1.7021066095       3.3430255550       5.5950316619
      0.0000000000       0.0000000000       6.7362733665
Cu Ge
5 2
direct
   0.3770190000000000    0.3770190000000000    0.3770190000000000 Cu
   0.8734760000000000    0.8734760000000000    0.8734760000000000 Cu
   0.6229810000000000    0.6229810000000000    0.6229810000000000 Cu
   0.1265240000000000    0.1265240000000000    0.1265240000000000 Cu
   0.0000000000000000    0.0000000000000000    0.0000000000000000 Cu
   0.7516020000000000    0.7516020000000000    0.7516020000000000 Ge
   0.2483980000000000    0.2483980000000000    0.2483980000000000 Ge
