Cu5 Ge2
1.0
      3.1590719795       0.0000000000       4.7116056100
      1.4333529344       2.8151794148       4.7116056100
      0.0000000000       0.0000000000       5.6726512560
Cu Ge
5 2
direct
   0.3770190000000000    0.3770190000000000    0.3770190000000000 Cu
   0.8734760000000000    0.8734760000000000    0.8734760000000000 Cu
   0.6229810000000000    0.6229810000000000    0.6229810000000000 Cu
   0.1265240000000000    0.1265240000000000    0.1265240000000000 Cu
   0.0000000000000000    0.0000000000000000    0.0000000000000000 Cu
   0.7516020000000000    0.7516020000000000    0.7516020000000000 Ge
   0.2483980000000000    0.2483980000000000    0.2483980000000000 Ge
