Cu5 Ge2
1.0
      3.5539559770       0.0000000000       5.3005563113
      1.6125220512       3.1670768416       5.3005563113
      0.0000000000       0.0000000000       6.3817326630
Cu Ge
5 2
direct
   0.3770190000000000    0.3770190000000000    0.3770190000000000 Cu
   0.8734760000000000    0.8734760000000000    0.8734760000000000 Cu
   0.6229810000000000    0.6229810000000000    0.6229810000000000 Cu
   0.1265240000000000    0.1265240000000000    0.1265240000000000 Cu
   0.0000000000000000    0.0000000000000000    0.0000000000000000 Cu
   0.7516020000000000    0.7516020000000000    0.7516020000000000 Ge
   0.2483980000000000    0.2483980000000000    0.2483980000000000 Ge
