Cu5 Ge2
1.0
      2.9616299808       0.0000000000       4.4171302594
      1.3437683760       2.6392307013       4.4171302594
      0.0000000000       0.0000000000       5.3181105525
Cu Ge
5 2
direct
   0.3770190000000000    0.3770190000000000    0.3770190000000000 Cu
   0.8734760000000000    0.8734760000000000    0.8734760000000000 Cu
   0.6229810000000000    0.6229810000000000    0.6229810000000000 Cu
   0.1265240000000000    0.1265240000000000    0.1265240000000000 Cu
   0.0000000000000000    0.0000000000000000    0.0000000000000000 Cu
   0.7516020000000000    0.7516020000000000    0.7516020000000000 Ge
   0.2483980000000000    0.2483980000000000    0.2483980000000000 Ge
