Mn2 P2
1.0
      2.5045115175       0.0000000000       0.0000000000
     -1.2522562781       2.1689702984       0.0000000000
      0.0000000000       0.0000000000       4.0268992500
Mn P
2 2
direct
   0.0000000000000000    0.0000000000000000    0.5000000000000000 Mn
   0.0000000000000000    0.0000000000000000    0.0000000000000000 Mn
   0.3333333333333333    0.6666666666666666    0.2500000000000000 P
   0.6666666666666666    0.3333333333333333    0.7500000000000000 P
