Mn2 Al2
1.0
      2.7314990100       0.0000000000       0.0000000000
     -0.0000000000       2.8783201425       0.0000000000
      0.0000000000       0.0000000000       2.8783201425
Mn Al
2 2
direct
   0.5000000000000000    0.0000000000000000    0.5000000000000000 Mn
   0.5000000000000000    0.5000000000000000    0.0000000000000000 Mn
   0.0000000000000000    0.0000000000000000    0.0000000000000000 Al
   0.0000000000000000    0.5000000000000000    0.5000000000000000 Al
