Mn2 Al2
1.0
      3.4598987460       0.0000000000       0.0000000000
     -0.0000000000       3.6458721805       0.0000000000
      0.0000000000       0.0000000000       3.6458721805
Mn Al
2 2
direct
   0.5000000000000000    0.0000000000000000    0.5000000000000000 Mn
   0.5000000000000000    0.5000000000000000    0.0000000000000000 Mn
   0.0000000000000000    0.0000000000000000    0.0000000000000000 Al
   0.0000000000000000    0.5000000000000000    0.5000000000000000 Al
