Mn2 Al2
1.0
      3.2777988120       0.0000000000       0.0000000000
     -0.0000000000       3.4539841710       0.0000000000
      0.0000000000       0.0000000000       3.4539841710
Mn Al
2 2
direct
   0.5000000000000000    0.0000000000000000    0.5000000000000000 Mn
   0.5000000000000000    0.5000000000000000    0.0000000000000000 Mn
   0.0000000000000000    0.0000000000000000    0.0000000000000000 Al
   0.0000000000000000    0.5000000000000000    0.5000000000000000 Al
