Mn1 V1
1.0
      2.7129802555       0.0000000000       0.0000000000
     -0.0000000000       2.7129802555       0.0000000000
      0.0000000000       0.0000000000       2.7129802555
Mn V
1 1
direct
   0.0000000000000000    0.0000000000000000    0.0000000000000000 Mn
   0.5000000000000000    0.5000000000000000    0.5000000000000000 V
