Mg2 Cu2
1.0
      3.0263024060       0.0000000000       0.0000000000
     -0.0000000000       4.2191607385       0.0000000000
      0.0000000000       0.0000000000       4.2200027805
Mg Cu
2 2
direct
   0.5000000000000000    0.7500000000000000    0.2512424700000000 Mg
   0.5000000000000000    0.2500000000000000    0.7487575300000000 Mg
   0.0000000000000000    0.7500000000000000    0.7521529200000000 Cu
   0.0000000000000000    0.2500000000000000    0.2478470800000000 Cu
