Mg2 Cu2
1.0
      2.8670233320       0.0000000000       0.0000000000
     -0.0000000000       3.9970996470       0.0000000000
      0.0000000000       0.0000000000       3.9978973710
Mg Cu
2 2
direct
   0.5000000000000000    0.7500000000000000    0.2512424700000000 Mg
   0.5000000000000000    0.2500000000000000    0.7487575300000000 Mg
   0.0000000000000000    0.7500000000000000    0.7521529200000000 Cu
   0.0000000000000000    0.2500000000000000    0.2478470800000000 Cu
