Dy1 Cu5
1.0
      3.4053978135       0.0000000000       1.9661077430
      1.1351323369       3.2106390109       1.9661077457
      0.0000000000       0.0000000000       3.9322154880
Dy Cu
1 5
direct
   0.0000000000000000    0.0000000000000000    0.0000000000000000 Dy
   0.2500000000000000    0.2500000000000000    0.2500000000000000 Cu
   0.6238968100000000    0.6238968100000000    0.6238968100000000 Cu
   0.6238968100000000    0.6238968100000000    0.1283105600000000 Cu
   0.1283105600000000    0.6238968100000000    0.6238968100000000 Cu
   0.6238968100000000    0.1283105600000000    0.6238968100000000 Cu
