Dy1 Cu5
1.0
      3.1925604502       0.0000000000       1.8432260090
      1.0641865658       3.0099740727       1.8432260116
      0.0000000000       0.0000000000       3.6864520200
Dy Cu
1 5
direct
   0.0000000000000000    0.0000000000000000    0.0000000000000000 Dy
   0.2500000000000000    0.2500000000000000    0.2500000000000000 Cu
   0.6238968100000000    0.6238968100000000    0.6238968100000000 Cu
   0.6238968100000000    0.6238968100000000    0.1283105600000000 Cu
   0.1283105600000000    0.6238968100000000    0.6238968100000000 Cu
   0.6238968100000000    0.1283105600000000    0.6238968100000000 Cu
