Dy1 Cu5
1.0
      3.6182351769       0.0000000000       2.0889894769
      1.2060781079       3.4113039491       2.0889894798
      0.0000000000       0.0000000000       4.1779789560
Dy Cu
1 5
direct
   0.0000000000000000    0.0000000000000000    0.0000000000000000 Dy
   0.2500000000000000    0.2500000000000000    0.2500000000000000 Cu
   0.6238968100000000    0.6238968100000000    0.6238968100000000 Cu
   0.6238968100000000    0.6238968100000000    0.1283105600000000 Cu
   0.1283105600000000    0.6238968100000000    0.6238968100000000 Cu
   0.6238968100000000    0.1283105600000000    0.6238968100000000 Cu
