Dy1 Cu5
1.0
      3.8310725402       0.0000000000       2.2118712108
      1.2770238790       3.6119688873       2.2118712139
      0.0000000000       0.0000000000       4.4237424240
Dy Cu
1 5
direct
   0.0000000000000000    0.0000000000000000    0.0000000000000000 Dy
   0.2500000000000000    0.2500000000000000    0.2500000000000000 Cu
   0.6238968100000000    0.6238968100000000    0.6238968100000000 Cu
   0.6238968100000000    0.6238968100000000    0.1283105600000000 Cu
   0.1283105600000000    0.6238968100000000    0.6238968100000000 Cu
   0.6238968100000000    0.1283105600000000    0.6238968100000000 Cu
