Dy1 Cu5
1.0
      4.0439099036       0.0000000000       2.3347529448
      1.3479696500       3.8126338255       2.3347529480
      0.0000000000       0.0000000000       4.6695058920
Dy Cu
1 5
direct
   0.0000000000000000    0.0000000000000000    0.0000000000000000 Dy
   0.2500000000000000    0.2500000000000000    0.2500000000000000 Cu
   0.6238968100000000    0.6238968100000000    0.6238968100000000 Cu
   0.6238968100000000    0.6238968100000000    0.1283105600000000 Cu
   0.1283105600000000    0.6238968100000000    0.6238968100000000 Cu
   0.6238968100000000    0.1283105600000000    0.6238968100000000 Cu
