Li3 Mg3
1.0
      4.8279630420       0.0000000000       0.0000000000
     -2.3939928385       4.1926155827       0.0000000000
      0.0000000000       0.0000000000       4.5159668100
Li Mg
3 3
direct
   0.3337065700000000    0.3337065700000000    0.0000000000000000 Li
   0.6675050700000000    0.3341630900000000    0.5000000000000000 Li
   0.3341630900000000    0.6675050700000000    0.5000000000000000 Li
   0.6609352700000000    0.9981873000000000    0.0000000000000000 Mg
   0.9981873000000000    0.6609352700000000    0.0000000000000000 Mg
   0.0055017100000000    0.0055017100000000    0.5000000000000000 Mg
