In2 Cu6
1.0
      5.1690875790       0.0000000000       0.0000000000
     -2.5845436934       4.4765612133       0.0000000000
      0.0000000000       0.0000000000       4.1052360450
In Cu
2 6
direct
   0.6666666666666666    0.3333333333333333    0.2500000000000000 In
   0.3333333333333333    0.6666666666666666    0.7500000000000000 In
   0.8436140400000000    0.1563859600000000    0.7500000000000000 Cu
   0.3127719200000000    0.1563859600000000    0.7500000000000000 Cu
   0.8436140400000000    0.6872280800000000    0.7500000000000000 Cu
   0.1563859600000000    0.8436140400000000    0.2500000000000000 Cu
   0.6872280800000000    0.8436140400000000    0.2500000000000000 Cu
   0.1563859600000000    0.3127719200000000    0.2500000000000000 Cu
