K1 Y1
1.0
      2.7523207950       0.0000000000       0.0000011342
     -1.3770107584       2.3833018871      -0.0000016069
      0.0000000000       0.0000000000       5.3754495000
K Y
1 1
direct
   0.6666666666666666    0.3333333333333333    0.7499990000000000 K
   0.3333333333333333    0.6666666666666666    0.2500000000000000 Y
