K1 Y1
1.0
      3.1192969010       0.0000000000       0.0000012854
     -1.5606121928       2.7010754721      -0.0000018212
      0.0000000000       0.0000000000       6.0921761000
K Y
1 1
direct
   0.6666666666666666    0.3333333333333333    0.7499990000000000 K
   0.3333333333333333    0.6666666666666666    0.2500000000000000 Y
