K1 Y1
1.0
      3.3027849540       0.0000000000       0.0000013610
     -1.6524129100       2.8599622645      -0.0000019283
      0.0000000000       0.0000000000       6.4505394000
K Y
1 1
direct
   0.6666666666666666    0.3333333333333333    0.7499990000000000 K
   0.3333333333333333    0.6666666666666666    0.2500000000000000 Y
