K1 Y1
1.0
      3.4862730070       0.0000000000       0.0000014366
     -1.7442136273       3.0188490570      -0.0000020355
      0.0000000000       0.0000000000       6.8089027000
K Y
1 1
direct
   0.6666666666666666    0.3333333333333333    0.7499990000000000 K
   0.3333333333333333    0.6666666666666666    0.2500000000000000 Y
