Zn1 Se1
1.0
      2.6017648866       0.0000000000       1.5021295420
      0.8672549630       2.4529668612       1.5021295430
      0.0000000000       0.0000000000       3.0042590775
Zn Se
1 1
direct
   0.0000000000000000    0.0000000000000000    0.0000000000000000 Zn
   0.2500000000000000    0.2500000000000000    0.2500000000000000 Se
