Li1 O2
1.0
      2.6955225563       0.0000000000       1.5562606735
      0.8985075188       2.5413630379       1.5562606735
      0.0000000000       0.0000000000       3.1125213470
Li O
1 2
direct
   0.0000000000000000    0.0000000000000000    0.0000000000000000 Li
   0.2500000000000000    0.2500000000000000    0.2500000000000000 O
   0.7500000000000000    0.7500000000000000    0.7500000000000000 O
