Li1 O2
1.0
      2.2699137316       0.0000000000       1.3105353040
      0.7566379105       2.1400951898       1.3105353040
      0.0000000000       0.0000000000       2.6210706080
Li O
1 2
direct
   0.0000000000000000    0.0000000000000000    0.0000000000000000 Li
   0.2500000000000000    0.2500000000000000    0.2500000000000000 O
   0.7500000000000000    0.7500000000000000    0.7500000000000000 O
