Li1 O2
1.0
      2.4117833399       0.0000000000       1.3924437605
      0.8039277800       2.2738511392       1.3924437605
      0.0000000000       0.0000000000       2.7848875210
Li O
1 2
direct
   0.0000000000000000    0.0000000000000000    0.0000000000000000 Li
   0.2500000000000000    0.2500000000000000    0.2500000000000000 O
   0.7500000000000000    0.7500000000000000    0.7500000000000000 O
