Li1 Mg7
1.0
      5.9908720640       0.0000000000       0.0000000000
     -2.9954351536       5.1882479054       0.0000000000
      0.0000000000       0.0000000000       4.8533011855
Li Mg
1 7
direct
   0.6666666666666666    0.3333333333333333    0.5000000000000000 Li
   0.1665946300000000    0.3331872600000000    0.5000000000000000 Mg
   0.6668127400000000    0.8334053700000000    0.5000000000000000 Mg
   0.1665946300000000    0.8334053700000000    0.5000000000000000 Mg
   0.8321117800000000    0.1678882200000000    0.0000000000000000 Mg
   0.3357754400000000    0.1678882200000000    0.0000000000000000 Mg
   0.8321117800000000    0.6642245600000000    0.0000000000000000 Mg
   0.3333333333333333    0.6666666666666666    0.0000000000000000 Mg
