Li1 Be1
1.0
      2.3894800500       0.0000000000       0.0000000000
     -0.0000000000       2.3894800500       0.0000000000
      0.0000000000       0.0000000000       2.3894800500
Li Be
1 1
direct
   0.0000000000000000    0.0000000000000000    0.0000000000000000 Li
   0.5000000000000000    0.5000000000000000    0.5000000000000000 Be
