Li2 Pt4
1.0
      4.2917871122       0.0000000000       2.4778636935
      1.4305953761       4.0463348929       2.4778636897
      0.0000000000       0.0000000000       4.9557283330
Li Pt
2 4
direct
   0.8750000000000000    0.8750000000000000    0.8750000000000000 Li
   0.1250000000000000    0.1250000000000000    0.1250000000000000 Li
   0.5000000000000000    0.5000000000000000    0.5000000000000000 Pt
   0.5000000000000000    0.5000000000000000    0.0000000000000000 Pt
   0.0000000000000000    0.5000000000000000    0.5000000000000000 Pt
   0.5000000000000000    0.0000000000000000    0.5000000000000000 Pt
