Li2 Pt4
1.0
      3.6141365155       0.0000000000       2.0866220576
      1.2047118957       3.4074399098       2.0866220545
      0.0000000000       0.0000000000       4.1732449120
Li Pt
2 4
direct
   0.8750000000000000    0.8750000000000000    0.8750000000000000 Li
   0.1250000000000000    0.1250000000000000    0.1250000000000000 Li
   0.5000000000000000    0.5000000000000000    0.5000000000000000 Pt
   0.5000000000000000    0.5000000000000000    0.0000000000000000 Pt
   0.0000000000000000    0.5000000000000000    0.5000000000000000 Pt
   0.5000000000000000    0.0000000000000000    0.5000000000000000 Pt
