Li2 Pt4
1.0
      3.3882529833       0.0000000000       1.9562081790
      1.1294174022       3.1944749155       1.9562081761
      0.0000000000       0.0000000000       3.9124171050
Li Pt
2 4
direct
   0.8750000000000000    0.8750000000000000    0.8750000000000000 Li
   0.1250000000000000    0.1250000000000000    0.1250000000000000 Li
   0.5000000000000000    0.5000000000000000    0.5000000000000000 Pt
   0.5000000000000000    0.5000000000000000    0.0000000000000000 Pt
   0.0000000000000000    0.5000000000000000    0.5000000000000000 Pt
   0.5000000000000000    0.0000000000000000    0.5000000000000000 Pt
