Li4 B4
1.0
      5.4779805000       0.0000000000       0.0000000000
     -0.0000000000       2.3132962500       0.0000000000
      0.0000000000       0.0000000000      10.1573115000
Li B
4 4
direct
   0.2887520000000000    0.7500000000000000    0.0000000000000000 Li
   0.7112480000000000    0.2500000000000000    0.0000000000000000 Li
   0.7815320000000000    0.7500000000000000    0.5000000000000000 Li
   0.2184680000000000    0.2500000000000000    0.5000000000000000 Li
   0.0000000000000000    0.5000000000000000    0.0000000000000000 B
   0.0000000000000000    0.0000000000000000    0.0000000000000000 B
   0.4853700000000000    0.7500000000000000    0.5000000000000000 B
   0.5146300000000000    0.2500000000000000    0.5000000000000000 B
