K1 Mg3
1.0
      4.5466294459       0.0000000000       2.6249977345
      1.5155431486       4.2866033503       2.6249977345
      0.0000000000       0.0000000000       5.2499954690
K Mg
1 3
direct
   0.0000000000000000    0.0000000000000000    0.0000000000000000 K
   0.2500000000000000    0.2500000000000000    0.2500000000000000 Mg
   0.5000000000000000    0.5000000000000000    0.5000000000000000 Mg
   0.7500000000000000    0.7500000000000000    0.7500000000000000 Mg
