K1 Mg3
1.0
      4.3073331593       0.0000000000       2.4868399590
      1.4357777198       4.0609926477       2.4868399590
      0.0000000000       0.0000000000       4.9736799180
K Mg
1 3
direct
   0.0000000000000000    0.0000000000000000    0.0000000000000000 K
   0.2500000000000000    0.2500000000000000    0.2500000000000000 Mg
   0.5000000000000000    0.5000000000000000    0.5000000000000000 Mg
   0.7500000000000000    0.7500000000000000    0.7500000000000000 Mg
