K1 Mg3
1.0
      3.8287405860       0.0000000000       2.2105244080
      1.2762468620       3.6097712424       2.2105244080
      0.0000000000       0.0000000000       4.4210488160
K Mg
1 3
direct
   0.0000000000000000    0.0000000000000000    0.0000000000000000 K
   0.2500000000000000    0.2500000000000000    0.2500000000000000 Mg
   0.5000000000000000    0.5000000000000000    0.5000000000000000 Mg
   0.7500000000000000    0.7500000000000000    0.7500000000000000 Mg
