K1 Mg3
1.0
      3.5894442994       0.0000000000       2.0723666325
      1.1964814331       3.3841605397       2.0723666325
      0.0000000000       0.0000000000       4.1447332650
K Mg
1 3
direct
   0.0000000000000000    0.0000000000000000    0.0000000000000000 K
   0.2500000000000000    0.2500000000000000    0.2500000000000000 Mg
   0.5000000000000000    0.5000000000000000    0.5000000000000000 Mg
   0.7500000000000000    0.7500000000000000    0.7500000000000000 Mg
