K1 Mg3
1.0
      4.0680368727       0.0000000000       2.3486821835
      1.3560122909       3.8353819450       2.3486821835
      0.0000000000       0.0000000000       4.6973643670
K Mg
1 3
direct
   0.0000000000000000    0.0000000000000000    0.0000000000000000 K
   0.2500000000000000    0.2500000000000000    0.2500000000000000 Mg
   0.5000000000000000    0.5000000000000000    0.5000000000000000 Mg
   0.7500000000000000    0.7500000000000000    0.7500000000000000 Mg
