Mn4 O6
1.0
      3.8813518718       0.0000000000       2.6638824442
      1.4026369430       3.6190471065       2.6638824442
      0.0000000000       0.0000000000       4.7075639590
Mn O
4 6
direct
   0.1495060000000000    0.1495060000000000    0.1495060000000000 Mn
   0.6495060000000000    0.6495060000000000    0.6495060000000000 Mn
   0.3504940000000000    0.3504940000000000    0.3504940000000000 Mn
   0.8504940000000000    0.8504940000000000    0.8504940000000000 Mn
   0.9465490000000000    0.2500000000000000    0.5534510000000000 O
   0.4465490000000000    0.0534510000000000    0.7500000000000000 O
   0.7500000000000000    0.4465490000000000    0.0534510000000000 O
   0.2500000000000000    0.5534510000000000    0.9465490000000000 O
   0.5534510000000000    0.9465490000000000    0.2500000000000000 O
   0.0534510000000000    0.7500000000000000    0.4465490000000000 O
