Mn4 O6
1.0
      3.6530370558       0.0000000000       2.5071834769
      1.3201288875       3.4061619826       2.5071834769
      0.0000000000       0.0000000000       4.4306484320
Mn O
4 6
direct
   0.1495060000000000    0.1495060000000000    0.1495060000000000 Mn
   0.6495060000000000    0.6495060000000000    0.6495060000000000 Mn
   0.3504940000000000    0.3504940000000000    0.3504940000000000 Mn
   0.8504940000000000    0.8504940000000000    0.8504940000000000 Mn
   0.9465490000000000    0.2500000000000000    0.5534510000000000 O
   0.4465490000000000    0.0534510000000000    0.7500000000000000 O
   0.7500000000000000    0.4465490000000000    0.0534510000000000 O
   0.2500000000000000    0.5534510000000000    0.9465490000000000 O
   0.5534510000000000    0.9465490000000000    0.2500000000000000 O
   0.0534510000000000    0.7500000000000000    0.4465490000000000 O
