Mn4 O6
1.0
      4.1096666878       0.0000000000       2.8205814116
      1.4851449985       3.8319322304       2.8205814116
      0.0000000000       0.0000000000       4.9844794860
Mn O
4 6
direct
   0.1495060000000000    0.1495060000000000    0.1495060000000000 Mn
   0.6495060000000000    0.6495060000000000    0.6495060000000000 Mn
   0.3504940000000000    0.3504940000000000    0.3504940000000000 Mn
   0.8504940000000000    0.8504940000000000    0.8504940000000000 Mn
   0.9465490000000000    0.2500000000000000    0.5534510000000000 O
   0.4465490000000000    0.0534510000000000    0.7500000000000000 O
   0.7500000000000000    0.4465490000000000    0.0534510000000000 O
   0.2500000000000000    0.5534510000000000    0.9465490000000000 O
   0.5534510000000000    0.9465490000000000    0.2500000000000000 O
   0.0534510000000000    0.7500000000000000    0.4465490000000000 O
