Li3 Au1
1.0
      3.4244476211       0.0000000000       1.9771056005
      1.1414825356       3.2286016045       1.9771055982
      0.0000000000       0.0000000000       3.9542121090
Li Au
3 1
direct
   0.7500000000000000    0.7500000000000000    0.7500000000000000 Li
   0.5000000000000000    0.5000000000000000    0.5000000000000000 Li
   0.2500000000000000    0.2500000000000000    0.2500000000000000 Li
   0.0000000000000000    0.0000000000000000    0.0000000000000000 Au
