Li3 Au1
1.0
      3.2342005310       0.0000000000       1.8672664004
      1.0780668392       3.0492348487       1.8672663983
      0.0000000000       0.0000000000       3.7345336585
Li Au
3 1
direct
   0.7500000000000000    0.7500000000000000    0.7500000000000000 Li
   0.5000000000000000    0.5000000000000000    0.5000000000000000 Li
   0.2500000000000000    0.2500000000000000    0.2500000000000000 Li
   0.0000000000000000    0.0000000000000000    0.0000000000000000 Au
