Li3 Th1
1.0
      4.1591232362       0.0000000000       2.4012709200
      1.3863744121       3.9212589921       2.4012709200
      0.0000000000       0.0000000000       4.8025418400
Li Th
3 1
direct
   0.2500000000000000    0.2500000000000000    0.2500000000000000 Li
   0.7500000000000000    0.7500000000000000    0.7500000000000000 Li
   0.5000000000000000    0.5000000000000000    0.5000000000000000 Li
   0.0000000000000000    0.0000000000000000    0.0000000000000000 Th
