Cs1 K3
1.0
      5.0951184870       0.0000000000       2.9416680300
      1.6983728290       4.8037237774       2.9416680300
      0.0000000000       0.0000000000       5.8833360600
Cs K
1 3
direct
   0.0000000000000000    0.0000000000000000    0.0000000000000000 Cs
   0.2500000000000000    0.2500000000000000    0.2500000000000000 K
   0.7500000000000000    0.7500000000000000    0.7500000000000000 K
   0.5000000000000000    0.5000000000000000    0.5000000000000000 K
