Cs1 K3
1.0
      5.4347930528       0.0000000000       3.1377792320
      1.8115976843       5.1239720293       3.1377792320
      0.0000000000       0.0000000000       6.2755584640
Cs K
1 3
direct
   0.0000000000000000    0.0000000000000000    0.0000000000000000 Cs
   0.2500000000000000    0.2500000000000000    0.2500000000000000 K
   0.7500000000000000    0.7500000000000000    0.7500000000000000 K
   0.5000000000000000    0.5000000000000000    0.5000000000000000 K
