Cs1 K3
1.0
      6.1141421844       0.0000000000       3.5300016360
      2.0380473948       5.7644685329       3.5300016360
      0.0000000000       0.0000000000       7.0600032720
Cs K
1 3
direct
   0.0000000000000000    0.0000000000000000    0.0000000000000000 Cs
   0.2500000000000000    0.2500000000000000    0.2500000000000000 K
   0.7500000000000000    0.7500000000000000    0.7500000000000000 K
   0.5000000000000000    0.5000000000000000    0.5000000000000000 K
