Cs1 K3
1.0
      6.4538167502       0.0000000000       3.7261128380
      2.1512722501       6.0847167848       3.7261128380
      0.0000000000       0.0000000000       7.4522256760
Cs K
1 3
direct
   0.0000000000000000    0.0000000000000000    0.0000000000000000 Cs
   0.2500000000000000    0.2500000000000000    0.2500000000000000 K
   0.7500000000000000    0.7500000000000000    0.7500000000000000 K
   0.5000000000000000    0.5000000000000000    0.5000000000000000 K
