Cs1 K3
1.0
      5.7744676186       0.0000000000       3.3338904340
      1.9248225395       5.4442202811       3.3338904340
      0.0000000000       0.0000000000       6.6677808680
Cs K
1 3
direct
   0.0000000000000000    0.0000000000000000    0.0000000000000000 Cs
   0.2500000000000000    0.2500000000000000    0.2500000000000000 K
   0.7500000000000000    0.7500000000000000    0.7500000000000000 K
   0.5000000000000000    0.5000000000000000    0.5000000000000000 K
