Li1 Re3
1.0
      2.8042502579       0.0000000000       1.6190346413
      0.9347500860       2.6438724980       1.6190346413
      0.0000000000       0.0000000000       3.2380692825
Li Re
1 3
direct
   0.0000000000000000    0.0000000000000000    0.0000000000000000 Li
   0.7500000000000000    0.7500000000000000    0.7500000000000000 Re
   0.2500000000000000    0.2500000000000000    0.2500000000000000 Re
   0.5000000000000000    0.5000000000000000    0.5000000000000000 Re
