Li1 Re3
1.0
      3.5520503266       0.0000000000       2.0507772123
      1.1840167755       3.3489051641       2.0507772123
      0.0000000000       0.0000000000       4.1015544245
Li Re
1 3
direct
   0.0000000000000000    0.0000000000000000    0.0000000000000000 Li
   0.7500000000000000    0.7500000000000000    0.7500000000000000 Re
   0.2500000000000000    0.2500000000000000    0.2500000000000000 Re
   0.5000000000000000    0.5000000000000000    0.5000000000000000 Re
