Li1 Re3
1.0
      2.9912002750       0.0000000000       1.7269702840
      0.9970667583       2.8201306645       1.7269702840
      0.0000000000       0.0000000000       3.4539405680
Li Re
1 3
direct
   0.0000000000000000    0.0000000000000000    0.0000000000000000 Li
   0.7500000000000000    0.7500000000000000    0.7500000000000000 Re
   0.2500000000000000    0.2500000000000000    0.2500000000000000 Re
   0.5000000000000000    0.5000000000000000    0.5000000000000000 Re
