Li4 Tl4
1.0
      4.1466099040       0.0000000000       0.0000000000
     -2.0733052522       3.5910693431       0.0000000000
      0.0000000000       0.0000000000       6.9380736000
Li Tl
4 4
direct
   0.3333333333333333    0.6666666666666666    0.4174990000000000 Li
   0.6666666666666666    0.3333333333333333    0.5825010000000000 Li
   0.6666666666666666    0.3333333333333333    0.9174990000000000 Li
   0.3333333333333333    0.6666666666666666    0.0825010000000000 Li
   0.0000000000000000    0.0000000000000000    0.2500000000000000 Tl
   0.0000000000000000    0.0000000000000000    0.7500000000000000 Tl
   0.3333333333333333    0.6666666666666666    0.7500000000000000 Tl
   0.6666666666666666    0.3333333333333333    0.2500000000000000 Tl
