Li1 Pm3
1.0
      3.9991536000       0.0000000000       0.0000000000
     -0.0000000000       3.9991536000       0.0000000000
      0.0000000000       0.0000000000       3.9991536000
Li Pm
1 3
direct
   0.0000000000000000    0.0000000000000000    0.0000000000000000 Li
   0.5000000000000000    0.5000000000000000    0.0000000000000000 Pm
   0.5000000000000000    0.0000000000000000    0.5000000000000000 Pm
   0.0000000000000000    0.5000000000000000    0.5000000000000000 Pm
