Cu1 O2
1.0
      4.3814574394       0.0000000000       4.0933251115
      3.9241499751       1.9489012905       0.2447488440
      0.0000000000       0.0000000000       4.3380739575
Cu O
1 2
direct
   0.4989590000000000    0.4935130000000000    0.4970650000000000 Cu
   0.1122510000000000    0.8964620000000000    0.0987190000000000 O
   0.8886480000000000    0.1026580000000000    0.8992210000000000 O
