Cu1 O2
1.0
      5.2577489273       0.0000000000       4.9119901339
      4.7089799701       2.3386815486       0.2936986128
      0.0000000000       0.0000000000       5.2056887490
Cu O
1 2
direct
   0.4989590000000000    0.4935130000000000    0.4970650000000000 Cu
   0.1122510000000000    0.8964620000000000    0.0987190000000000 O
   0.8886480000000000    0.1026580000000000    0.8992210000000000 O
