Cu1 O2
1.0
      5.5498460899       0.0000000000       5.1848784746
      4.9705899684       2.4686083013       0.3100152024
      0.0000000000       0.0000000000       5.4948936795
Cu O
1 2
direct
   0.4989590000000000    0.4935130000000000    0.4970650000000000 Cu
   0.1122510000000000    0.8964620000000000    0.0987190000000000 O
   0.8886480000000000    0.1026580000000000    0.8992210000000000 O
