Al4 Cu16
1.0
      5.3070304795       0.0000000000       0.0000000000
     -0.0000000000       5.3070304795       0.0000000000
      0.0000000000       0.0000000000       5.3070304795
Al Cu
4 16
direct
   0.4408904100000000    0.9408904100000000    0.5591095900000000 Al
   0.9408904100000000    0.5591095900000000    0.4408904100000000 Al
   0.5591095900000000    0.4408904100000000    0.9408904100000000 Al
   0.0591095900000000    0.0591095900000000    0.0591095900000000 Al
   0.8090787800000000    0.3090787800000000    0.1909212200000000 Cu
   0.3090787800000000    0.1909212200000000    0.8090787800000000 Cu
   0.1909212200000000    0.8090787800000000    0.3090787800000000 Cu
   0.6909212200000000    0.6909212200000000    0.6909212200000000 Cu
   0.0487556600000000    0.8748909499999999    0.6999647300000000 Cu
   0.3000352700000000    0.5487556600000000    0.6251090500000001 Cu
   0.3748909500000000    0.8000352700000000    0.9512443400000000 Cu
   0.5487556600000000    0.6251090500000001    0.3000352700000000 Cu
   0.8000352700000000    0.9512443400000000    0.3748909500000000 Cu
   0.8748909499999999    0.6999647300000000    0.0487556600000000 Cu
   0.9512443400000000    0.3748909500000000    0.8000352700000000 Cu
   0.6999647300000000    0.0487556600000000    0.8748909499999999 Cu
   0.6251090500000001    0.3000352700000000    0.5487556600000000 Cu
   0.4512443400000000    0.1251090500000000    0.1999647300000000 Cu
   0.1999647300000000    0.4512443400000000    0.1251090500000000 Cu
   0.1251090500000000    0.1999647300000000    0.4512443400000000 Cu
