Li6 As2
1.0
      3.9073239000       0.0000000000       0.0000000000
     -1.9536623985       3.3838424969       0.0000000000
      0.0000000000       0.0000000000       6.9710481000
Li As
6 2
direct
   0.0000000000000000    0.0000000000000000    0.2500000000000000 Li
   0.0000000000000000    0.0000000000000000    0.7500000000000000 Li
   0.3333333333333333    0.6666666666666666    0.5852150000000000 Li
   0.6666666666666666    0.3333333333333333    0.0852150000000000 Li
   0.6666666666666666    0.3333333333333333    0.4147850000000000 Li
   0.3333333333333333    0.6666666666666666    0.9147850000000000 Li
   0.3333333333333333    0.6666666666666666    0.2500000000000000 As
   0.6666666666666666    0.3333333333333333    0.7500000000000000 As
