Li1 Cl1
1.0
      2.3350884504       0.0000000000       1.3481633537
      0.7783628165       2.2015423024       1.3481633531
      0.0000000000       0.0000000000       2.6963282100
Li Cl
1 1
direct
   0.0000000000000000    0.0000000000000000    0.0000000000000000 Li
   0.5000000000000000    0.5000000000000000    0.5000000000000000 Cl
