Li1 Cl1
1.0
      2.8021061405       0.0000000000       1.6177960244
      0.9340353798       2.6418507628       1.6177960237
      0.0000000000       0.0000000000       3.2355938520
Li Cl
1 1
direct
   0.0000000000000000    0.0000000000000000    0.0000000000000000 Li
   0.5000000000000000    0.5000000000000000    0.5000000000000000 Cl
