Mn6 F18
1.0
      8.1477445115       0.0000000000       0.0000000000
     -4.0738714651       7.0561541870       0.0000000000
      0.0000000000       0.0000000000       4.4603630500
Mn F
6 18
direct
   0.3301170000000000    0.0000000000000000    0.5000000000000000 Mn
   0.3369480000000000    0.3369480000000000    0.0000000000000000 Mn
   0.6630520000000000    0.0000000000000000    0.0000000000000000 Mn
   0.6698830000000000    0.6698830000000000    0.5000000000000000 Mn
   0.0000000000000000    0.3301170000000000    0.5000000000000000 Mn
   0.0000000000000000    0.6630520000000000    0.0000000000000000 Mn
   0.1261330000000000    0.2403290000000000    0.7630560000000000 F
   0.2403290000000000    0.1261330000000000    0.2369440000000000 F
   0.2022040000000000    0.4285310000000000    0.2713140000000000 F
   0.4285310000000000    0.2022040000000000    0.7286859999999999 F
   0.0958930000000000    0.5542770000000000    0.7593160000000000 F
   0.5542770000000000    0.0958930000000000    0.2406840000000000 F
   0.4457230000000000    0.5416160000000000    0.7593160000000000 F
   0.5416160000000000    0.4457230000000000    0.2406840000000000 F
   0.1141960000000000    0.8738669999999999    0.7630560000000000 F
   0.8738669999999999    0.1141960000000000    0.2369440000000000 F
   0.2263280000000000    0.7977959999999999    0.2713140000000000 F
   0.7977959999999999    0.2263280000000000    0.7286859999999999 F
   0.5714690000000000    0.7736720000000000    0.2713140000000000 F
   0.7736720000000000    0.5714690000000000    0.7286859999999999 F
   0.9041070000000000    0.4583840000000000    0.2406840000000000 F
   0.4583840000000000    0.9041070000000000    0.7593160000000000 F
   0.7596710000000000    0.8858040000000000    0.7630560000000000 F
   0.8858040000000000    0.7596710000000000    0.2369440000000000 F
