Li30 Au8
1.0
      7.4268372902       0.0000000000      -2.6257837978
     -3.7134182134       6.4318303867      -2.6257837987
      0.0000000000       0.0000000000       7.8773513870
Li Au
30 8
direct
   0.9655339400000000    0.3858603200000000    0.6594468100000000 Li
   0.6939128800000000    0.0344660600000000    0.9203253800000000 Li
   0.9203253800000000    0.6939128800000000    0.0344660600000000 Li
   0.1250000000000000    0.7500000000000000    0.8750000000000000 Li
   0.8858593200000000    0.4655339400000000    0.1594468100000000 Li
   0.2735864900000000    0.1141396800000000    0.0796746200000000 Li
   0.1939128800000000    0.4203253800000000    0.5344660600000000 Li
   0.7735864900000000    0.5796746200000000    0.6141406800000000 Li
   0.6141406800000000    0.7735864900000000    0.5796746200000000 Li
   0.4203253800000000    0.5344660600000000    0.1939128800000000 Li
   0.8060871200000000    0.7264135100000000    0.3405531900000000 Li
   0.4655339400000000    0.1594468100000000    0.8858593200000000 Li
   0.3060871200000000    0.8405531900000000    0.2264135100000000 Li
   0.1141396800000000    0.0796746200000000    0.2735864900000000 Li
   0.5344660600000000    0.1939128800000000    0.4203253800000000 Li
   0.6250000000000000    0.3750000000000000    0.2500000000000000 Li
   0.6594468100000000    0.9655339400000000    0.3858603200000000 Li
   0.8750000000000000    0.1250000000000000    0.7500000000000000 Li
   0.5796746200000000    0.6141406800000000    0.7735864900000000 Li
   0.3858603200000000    0.6594468100000000    0.9655339400000000 Li
   0.7264135100000000    0.3405531900000000    0.8060871200000000 Li
   0.0796746200000000    0.2735864900000000    0.1141396800000000 Li
   0.3405531900000000    0.8060871200000000    0.7264135100000000 Li
   0.8405531900000000    0.2264135100000000    0.3060871200000000 Li
   0.0344660600000000    0.9203253800000000    0.6939128800000000 Li
   0.1594468100000000    0.8858593200000000    0.4655339400000000 Li
   0.7500000000000000    0.8750000000000000    0.1250000000000000 Li
   0.2264135100000000    0.3060871200000000    0.8405531900000000 Li
   0.3750000000000000    0.2500000000000000    0.6250000000000000 Li
   0.2500000000000000    0.6250000000000000    0.3750000000000000 Li
   0.5000000000000000    0.0000000000000000    0.0901411600000000 Au
   0.9098588399999999    0.9098588399999999    0.9098588399999999 Au
   0.4098588400000000    0.4098588400000000    0.4098588400000000 Au
   0.0000000000000000    0.0901411600000000    0.5000000000000000 Au
   0.0901411600000000    0.5000000000000000    0.0000000000000000 Au
   0.5901411600000001    0.5000000000000000    0.0000000000000000 Au
   0.5000000000000000    0.0000000000000000    0.5901411600000001 Au
   0.0000000000000000    0.5901411600000001    0.5000000000000000 Au
