Cs1 K3
1.0
      5.4545016592       0.0000000000      -4.9113662792
     -1.0812054488       5.3462681497      -4.9113662792
      0.0000000000       0.0000000000       7.3398301805
Cs K
1 3
direct
   0.0000000000000000    0.0000000000000000    0.0000000000000000 Cs
   0.7500000000000000    0.2500000000000000    0.5000000000000000 K
   0.2500000000000000    0.7500000000000000    0.5000000000000000 K
   0.5000000000000000    0.5000000000000000    0.0000000000000000 K
