Cs1 K3
1.0
      4.8127955817       0.0000000000      -4.3335584816
     -0.9540048077       4.7172954262      -4.3335584816
      0.0000000000       0.0000000000       6.4763207475
Cs K
1 3
direct
   0.0000000000000000    0.0000000000000000    0.0000000000000000 Cs
   0.7500000000000000    0.2500000000000000    0.5000000000000000 K
   0.2500000000000000    0.7500000000000000    0.5000000000000000 K
   0.5000000000000000    0.5000000000000000    0.0000000000000000 K
