Cs1 K3
1.0
      5.7753546980       0.0000000000      -5.2002701779
     -1.1448057693       5.6607545114      -5.2002701779
      0.0000000000       0.0000000000       7.7715848970
Cs K
1 3
direct
   0.0000000000000000    0.0000000000000000    0.0000000000000000 Cs
   0.7500000000000000    0.2500000000000000    0.5000000000000000 K
   0.2500000000000000    0.7500000000000000    0.5000000000000000 K
   0.5000000000000000    0.5000000000000000    0.0000000000000000 K
