Cs1 K3
1.0
      6.0962077368       0.0000000000      -5.4891740767
     -1.2084060898       5.9752408731      -5.4891740767
      0.0000000000       0.0000000000       8.2033396135
Cs K
1 3
direct
   0.0000000000000000    0.0000000000000000    0.0000000000000000 Cs
   0.7500000000000000    0.2500000000000000    0.5000000000000000 K
   0.2500000000000000    0.7500000000000000    0.5000000000000000 K
   0.5000000000000000    0.5000000000000000    0.0000000000000000 K
