Cs1 K3
1.0
      5.1336486204       0.0000000000      -4.6224623804
     -1.0176051282       5.0317817879      -4.6224623804
      0.0000000000       0.0000000000       6.9080754640
Cs K
1 3
direct
   0.0000000000000000    0.0000000000000000    0.0000000000000000 Cs
   0.7500000000000000    0.2500000000000000    0.5000000000000000 K
   0.2500000000000000    0.7500000000000000    0.5000000000000000 K
   0.5000000000000000    0.5000000000000000    0.0000000000000000 K
