La1 Zn1
1.0
      3.5684113180       0.0000000000       0.0000000000
     -0.0000000000       3.5684113180       0.0000000000
      0.0000000000       0.0000000000       3.5684113180
La Zn
1 1
direct
   0.0000000000000000    0.0000000000000000    0.0000000000000000 La
   0.5000000000000000    0.5000000000000000    0.5000000000000000 Zn
