Li4 Mg2
1.0
      4.7668338990       0.0000000000       0.0000000000
     -2.3834183826       4.1281984248       0.0000000000
      0.0000000000       0.0000000000       4.5564010740
Li Mg
4 2
direct
   0.6668556600000000    0.0000000000000000    0.0000000000000000 Li
   0.3331443400000000    0.3331443400000000    0.0000000000000000 Li
   0.0000000000000000    0.6668556600000000    0.0000000000000000 Li
   0.0000000000000000    0.0000000000000000    0.5000000000000000 Li
   0.6666666666666666    0.3333333333333333    0.5000000000000000 Mg
   0.3333333333333333    0.6666666666666666    0.5000000000000000 Mg
