Li4 Mg2
1.0
      5.0316580045       0.0000000000       0.0000000000
     -2.5158305150       4.3575427817       0.0000000000
      0.0000000000       0.0000000000       4.8095344670
Li Mg
4 2
direct
   0.6668556600000000    0.0000000000000000    0.0000000000000000 Li
   0.3331443400000000    0.3331443400000000    0.0000000000000000 Li
   0.0000000000000000    0.6668556600000000    0.0000000000000000 Li
   0.0000000000000000    0.0000000000000000    0.5000000000000000 Li
   0.6666666666666666    0.3333333333333333    0.5000000000000000 Mg
   0.3333333333333333    0.6666666666666666    0.5000000000000000 Mg
