Mn2 Au1
1.0
      2.2250597713       0.0000000000      -0.5446727460
     -0.1333305308       2.2210614480      -0.5446727460
      0.0000000000       0.0000000000       4.8171672080
Mn Au
2 1
direct
   0.6733300000000000    0.6733300000000000    0.3466600000000000 Mn
   0.3266700000000000    0.3266700000000000    0.6533400000000000 Mn
   0.0000000000000000    0.0000000000000000    0.0000000000000000 Au
