Mn2 Au1
1.0
      2.5031922428       0.0000000000      -0.6127568393
     -0.1499968471       2.4986941290      -0.6127568393
      0.0000000000       0.0000000000       5.4193131090
Mn Au
2 1
direct
   0.6733300000000000    0.6733300000000000    0.3466600000000000 Mn
   0.3266700000000000    0.3266700000000000    0.6533400000000000 Mn
   0.0000000000000000    0.0000000000000000    0.0000000000000000 Au
