Mn2 Au1
1.0
      2.6422584785       0.0000000000      -0.6467988859
     -0.1583300053       2.6375104695      -0.6467988859
      0.0000000000       0.0000000000       5.7203860595
Mn Au
2 1
direct
   0.6733300000000000    0.6733300000000000    0.3466600000000000 Mn
   0.3266700000000000    0.3266700000000000    0.6533400000000000 Mn
   0.0000000000000000    0.0000000000000000    0.0000000000000000 Au
