Mn2 Au1
1.0
      2.0859935356       0.0000000000      -0.5106306994
     -0.1249973726       2.0822451075      -0.5106306994
      0.0000000000       0.0000000000       4.5160942575
Mn Au
2 1
direct
   0.6733300000000000    0.6733300000000000    0.3466600000000000 Mn
   0.3266700000000000    0.3266700000000000    0.6533400000000000 Mn
   0.0000000000000000    0.0000000000000000    0.0000000000000000 Au
