Ce6 Mg6
1.0
      4.0386015750       0.0000000000       0.0000000000
     -0.0000000000       2.4108131475       0.0000000000
      0.0000000000       0.0000000000      13.4254470525
Ce Mg
6 6
direct
   0.0000000000000000    0.0000000000000000    0.3269477100000000 Ce
   0.5000000000000000    0.0000000000000000    0.4403238300000000 Ce
   0.5000000000000000    0.5000000000000000    0.2866457000000000 Ce
   0.0000000000000000    0.5000000000000000    0.8269477100000000 Ce
   0.5000000000000000    0.5000000000000000    0.9403238300000000 Ce
   0.5000000000000000    0.0000000000000000    0.7866457000000000 Ce
   0.0000000000000000    0.5000000000000000    0.5070809300000000 Mg
   0.0000000000000000    0.5000000000000000    0.1609391100000000 Mg
   0.5000000000000000    0.0000000000000000    0.1113957100000000 Mg
   0.0000000000000000    0.0000000000000000    0.0070809300000000 Mg
   0.0000000000000000    0.0000000000000000    0.6609391100000001 Mg
   0.5000000000000000    0.5000000000000000    0.6113957100000000 Mg
