Li1 B11
1.0
      3.6241247305       0.0000000000       2.0923893888
      1.2080415768       3.4168575638       2.0923893888
      0.0000000000       0.0000000000       4.1847787775
Li B
1 11
direct
   0.2500000000000000    0.2500000000000000    0.2500000000000000 Li
   0.3026030000000000    0.3026030000000000    0.6973970000000000 B
   0.6973970000000000    0.3026030000000000    0.6973970000000000 B
   0.3026030000000000    0.6973970000000000    0.6973970000000000 B
   0.6973970000000000    0.6973970000000000    0.3026030000000000 B
   0.3026030000000000    0.6973970000000000    0.3026030000000000 B
   0.6973970000000000    0.3026030000000000    0.3026030000000000 B
   0.4391520000000000    0.8536160000000000    0.8536160000000000 B
   0.8536160000000000    0.4391520000000000    0.8536160000000000 B
   0.8536160000000000    0.8536160000000000    0.8536160000000000 B
   0.8536160000000000    0.8536160000000000    0.4391520000000000 B
   0.0000000000000000    0.0000000000000000    0.0000000000000000 B
