Li1 B11
1.0
      3.8373085382       0.0000000000       2.2154711175
      1.2791028461       3.6178491852       2.2154711175
      0.0000000000       0.0000000000       4.4309422350
Li B
1 11
direct
   0.2500000000000000    0.2500000000000000    0.2500000000000000 Li
   0.3026030000000000    0.3026030000000000    0.6973970000000000 B
   0.6973970000000000    0.3026030000000000    0.6973970000000000 B
   0.3026030000000000    0.6973970000000000    0.6973970000000000 B
   0.6973970000000000    0.6973970000000000    0.3026030000000000 B
   0.3026030000000000    0.6973970000000000    0.3026030000000000 B
   0.6973970000000000    0.3026030000000000    0.3026030000000000 B
   0.4391520000000000    0.8536160000000000    0.8536160000000000 B
   0.8536160000000000    0.4391520000000000    0.8536160000000000 B
   0.8536160000000000    0.8536160000000000    0.8536160000000000 B
   0.8536160000000000    0.8536160000000000    0.4391520000000000 B
   0.0000000000000000    0.0000000000000000    0.0000000000000000 B
