Li1 B11
1.0
      3.1977571152       0.0000000000       1.8462259313
      1.0659190384       3.0148743210       1.8462259313
      0.0000000000       0.0000000000       3.6924518625
Li B
1 11
direct
   0.2500000000000000    0.2500000000000000    0.2500000000000000 Li
   0.3026030000000000    0.3026030000000000    0.6973970000000000 B
   0.6973970000000000    0.3026030000000000    0.6973970000000000 B
   0.3026030000000000    0.6973970000000000    0.6973970000000000 B
   0.6973970000000000    0.6973970000000000    0.3026030000000000 B
   0.3026030000000000    0.6973970000000000    0.3026030000000000 B
   0.6973970000000000    0.3026030000000000    0.3026030000000000 B
   0.4391520000000000    0.8536160000000000    0.8536160000000000 B
   0.8536160000000000    0.4391520000000000    0.8536160000000000 B
   0.8536160000000000    0.8536160000000000    0.8536160000000000 B
   0.8536160000000000    0.8536160000000000    0.4391520000000000 B
   0.0000000000000000    0.0000000000000000    0.0000000000000000 B
