Hf1 Cu3
1.0
      3.1774840359       0.0000000000       1.8345212635
      1.0591613453       2.9957606786       1.8345212635
      0.0000000000       0.0000000000       3.6690425270
Hf Cu
1 3
direct
   0.0000000000000000    0.0000000000000000    0.0000000000000000 Hf
   0.2500000000000000    0.2500000000000000    0.2500000000000000 Cu
   0.7500000000000000    0.7500000000000000    0.7500000000000000 Cu
   0.5000000000000000    0.5000000000000000    0.5000000000000000 Cu
