Hf1 Cu3
1.0
      3.5513056872       0.0000000000       2.0503472945
      1.1837685624       3.3482031113       2.0503472945
      0.0000000000       0.0000000000       4.1006945890
Hf Cu
1 3
direct
   0.0000000000000000    0.0000000000000000    0.0000000000000000 Hf
   0.2500000000000000    0.2500000000000000    0.2500000000000000 Cu
   0.7500000000000000    0.7500000000000000    0.7500000000000000 Cu
   0.5000000000000000    0.5000000000000000    0.5000000000000000 Cu
