Hf1 Cu3
1.0
      3.3643948616       0.0000000000       1.9424342790
      1.1214649539       3.1719818950       1.9424342790
      0.0000000000       0.0000000000       3.8848685580
Hf Cu
1 3
direct
   0.0000000000000000    0.0000000000000000    0.0000000000000000 Hf
   0.2500000000000000    0.2500000000000000    0.2500000000000000 Cu
   0.7500000000000000    0.7500000000000000    0.7500000000000000 Cu
   0.5000000000000000    0.5000000000000000    0.5000000000000000 Cu
