Hf1 Cu3
1.0
      2.9905732103       0.0000000000       1.7266082480
      0.9968577368       2.8195394622       1.7266082480
      0.0000000000       0.0000000000       3.4532164960
Hf Cu
1 3
direct
   0.0000000000000000    0.0000000000000000    0.0000000000000000 Hf
   0.2500000000000000    0.2500000000000000    0.2500000000000000 Cu
   0.7500000000000000    0.7500000000000000    0.7500000000000000 Cu
   0.5000000000000000    0.5000000000000000    0.5000000000000000 Cu
