Hf1 Cu3
1.0
      2.8036623847       0.0000000000       1.6186952325
      0.9345541282       2.6433182458       1.6186952325
      0.0000000000       0.0000000000       3.2373904650
Hf Cu
1 3
direct
   0.0000000000000000    0.0000000000000000    0.0000000000000000 Hf
   0.2500000000000000    0.2500000000000000    0.2500000000000000 Cu
   0.7500000000000000    0.7500000000000000    0.7500000000000000 Cu
   0.5000000000000000    0.5000000000000000    0.5000000000000000 Cu
