Li1 Pa1
1.0
      2.4303684031       0.0000000000      -0.0016093929
     -1.2149398429       2.1049126687       0.0016286935
      0.0000000000       0.0000000000       4.5400675440
Li Pa
1 1
direct
   0.6666666666666666    0.3333333333333333    0.7499850000000000 Li
   0.3333333333333333    0.6666666666666666    0.2500160000000000 Pa
