Ti10 Mn6
1.0
      4.2038416000       0.0000000000       0.0000000000
     -0.0000000000       4.9696225586      -2.8692139061
      0.0000000000       0.0000000000       5.7384263360
Ti Mn
10 6
direct
   0.0000000000000000    0.6666666666666666    0.3333333333333333 Ti
   0.0000000000000000    0.3333333333333333    0.6666666666666666 Ti
   0.5000000000000000    0.3333333333333333    0.6666666666666666 Ti
   0.5000000000000000    0.6666666666666666    0.3333333333333333 Ti
   0.7500000000000000    0.7613700000000000    0.7613700000000000 Ti
   0.2500000000000000    0.2386300000000000    0.2386300000000000 Ti
   0.7500000000000000    0.0000000000000000    0.2386300000000000 Ti
   0.2500000000000000    0.0000000000000000    0.7613700000000000 Ti
   0.7500000000000000    0.2386300000000000    0.0000000000000000 Ti
   0.2500000000000000    0.7613700000000000    0.0000000000000000 Ti
   0.7500000000000000    0.3987810000000000    0.3987810000000000 Mn
   0.2500000000000000    0.6012189999999999    0.6012189999999999 Mn
   0.7500000000000000    0.0000000000000000    0.6012189999999999 Mn
   0.2500000000000000    0.0000000000000000    0.3987810000000000 Mn
   0.7500000000000000    0.6012189999999999    0.0000000000000000 Mn
   0.2500000000000000    0.3987810000000000    0.0000000000000000 Mn
