Li3 Mg1
1.0
      4.2340517980       0.0000000000      -3.1314546123
     -0.3717090623       2.6614337265      -4.5289960818
      0.0000000000       0.0000000000       5.2662322980
Li Mg
3 1
direct
   0.8341634700000000    0.5000000000000000    0.3341634700000000 Li
   0.2480506400000000    0.2502639300000000    0.9977847100000000 Li
   0.7475207800000000    0.7497360700000000    0.9977847100000000 Li
   0.3369321200000000    0.0000000000000000    0.3369321200000000 Mg
