K1 Br1
1.0
      3.4369741500       0.0000000000       0.0000000000
     -0.0000000000       3.4369741500       0.0000000000
      0.0000000000       0.0000000000       3.4369741500
K Br
1 1
direct
   0.0000000000000000    0.0000000000000000    0.0000000000000000 K
   0.5000000000000000    0.5000000000000000    0.5000000000000000 Br
