K1 Br1
1.0
      3.2347992000       0.0000000000       0.0000000000
     -0.0000000000       3.2347992000       0.0000000000
      0.0000000000       0.0000000000       3.2347992000
K Br
1 1
direct
   0.0000000000000000    0.0000000000000000    0.0000000000000000 K
   0.5000000000000000    0.5000000000000000    0.5000000000000000 Br
