Li1 Pd3
1.0
      3.0806705920       0.0000000000      -0.0000016485
     -0.0000000000       3.0805309840       0.0000000000
      0.0000000000       0.0000000000       3.0787918720
Li Pd
1 3
direct
   0.0000000000000000    0.0000000000000000    0.0000000000000000 Li
   0.0000010000000000    0.5000000000000000    0.5000000000000000 Pd
   0.5000000000000000    0.0000010000000000    0.5000010000000000 Pd
   0.5000010000000000    0.5000010000000000    0.0000010000000000 Pd
