Zn6 Mo1
1.0
      4.4365602260       0.0000000000       2.5625720372
      1.4763147941       4.1834595100       2.5619002072
      0.0000000000       0.0000000000       5.1246526685
Zn Mo
6 1
direct
   0.5000007100000000    0.5000007100000000    0.9999984100000000 Zn
   0.5000007100000000    0.9999984100000000    0.5000007100000000 Zn
   0.0000000400000000    0.0000000400000000    0.4999992600000000 Zn
   0.0000000400000000    0.4999992600000000    0.0000000400000000 Zn
   0.9999984100000000    0.5000007100000000    0.5000007100000000 Zn
   0.4999992600000000    0.0000000400000000    0.0000000400000000 Zn
   0.9999998400000000    0.9999998400000000    0.9999998400000000 Mo
