Zn6 Mo1
1.0
      3.7360507166       0.0000000000       2.1579553997
      1.2432124582       3.5229132716       2.1573896482
      0.0000000000       0.0000000000       4.3154969840
Zn Mo
6 1
direct
   0.5000007100000000    0.5000007100000000    0.9999984100000000 Zn
   0.5000007100000000    0.9999984100000000    0.5000007100000000 Zn
   0.0000000400000000    0.0000000400000000    0.4999992600000000 Zn
   0.0000000400000000    0.4999992600000000    0.0000000400000000 Zn
   0.9999984100000000    0.5000007100000000    0.5000007100000000 Zn
   0.4999992600000000    0.0000000400000000    0.0000000400000000 Zn
   0.9999998400000000    0.9999998400000000    0.9999998400000000 Mo
