Zn6 Ru2
1.0
      3.1011361425       0.0000000000      -0.7352492976
     -0.1743206929       3.0962312046      -0.7352497963
      0.0000000000       0.0000000000       6.9076108075
Zn Ru
6 2
direct
   0.6293926900000000    0.6293926900000000    0.2587843800000000 Zn
   0.3706073100000000    0.3706073100000000    0.7412156200000000 Zn
   0.5000000000000000    0.0000000000000000    0.0000000000000000 Zn
   0.0000000000000000    0.5000000000000000    0.0000000000000000 Zn
   0.7500000000000000    0.2500000000000000    0.5000000000000000 Zn
   0.2500000000000000    0.7500000000000000    0.5000000000000000 Zn
   0.8830343500000000    0.8830343500000000    0.7660687000000000 Ru
   0.1169656500000000    0.1169656500000000    0.2339313000000000 Ru
