Li2 Mg2
1.0
      2.8225978110       0.0000000000       0.0000000000
     -1.4112997997       2.4444408927       0.0000000000
      0.0000000000       0.0000000000       9.1055029050
Li Mg
2 2
direct
   0.6666666666666666    0.3333333333333333    0.6243855500000000 Li
   0.3333333333333333    0.6666666666666666    0.3756144500000000 Li
   0.3333333333333333    0.6666666666666666    0.8707794100000000 Mg
   0.6666666666666666    0.3333333333333333    0.1292205900000000 Mg
