Mn5 O8
1.0
      4.7206848760       0.0000000000       2.9543288765
      1.6362831117       4.4280292769       2.9543288765
      0.0000000000       0.0000000000       5.5689254100
Mn O
5 8
direct
   0.5000000000000000    0.5000000000000000    0.5000000000000000 Mn
   0.0000000000000000    0.0000000000000000    0.0000000000000000 Mn
   0.5000000000000000    0.5000000000000000    0.0000000000000000 Mn
   0.5000000000000000    0.0000000000000000    0.5000000000000000 Mn
   0.0000000000000000    0.5000000000000000    0.5000000000000000 Mn
   0.7305620000000000    0.7305620000000000    0.7305620000000000 O
   0.2478870000000000    0.2478870000000000    0.7061200000000000 O
   0.2478870000000000    0.7061200000000000    0.2478870000000000 O
   0.7061200000000000    0.2478870000000000    0.2478870000000000 O
   0.2938800000000000    0.7521130000000000    0.7521130000000000 O
   0.7521130000000000    0.2938800000000000    0.7521130000000000 O
   0.7521130000000000    0.7521130000000000    0.2938800000000000 O
   0.2694380000000000    0.2694380000000000    0.2694380000000000 O
