Mn5 O8
1.0
      3.9339040633       0.0000000000       2.4619407304
      1.3635692598       3.6900243974       2.4619407304
      0.0000000000       0.0000000000       4.6407711750
Mn O
5 8
direct
   0.5000000000000000    0.5000000000000000    0.5000000000000000 Mn
   0.0000000000000000    0.0000000000000000    0.0000000000000000 Mn
   0.5000000000000000    0.5000000000000000    0.0000000000000000 Mn
   0.5000000000000000    0.0000000000000000    0.5000000000000000 Mn
   0.0000000000000000    0.5000000000000000    0.5000000000000000 Mn
   0.7305620000000000    0.7305620000000000    0.7305620000000000 O
   0.2478870000000000    0.2478870000000000    0.7061200000000000 O
   0.2478870000000000    0.7061200000000000    0.2478870000000000 O
   0.7061200000000000    0.2478870000000000    0.2478870000000000 O
   0.2938800000000000    0.7521130000000000    0.7521130000000000 O
   0.7521130000000000    0.2938800000000000    0.7521130000000000 O
   0.7521130000000000    0.7521130000000000    0.2938800000000000 O
   0.2694380000000000    0.2694380000000000    0.2694380000000000 O
