Mn5 O8
1.0
      4.4584246051       0.0000000000       2.7901994945
      1.5453784944       4.1820276504       2.7901994945
      0.0000000000       0.0000000000       5.2595406650
Mn O
5 8
direct
   0.5000000000000000    0.5000000000000000    0.5000000000000000 Mn
   0.0000000000000000    0.0000000000000000    0.0000000000000000 Mn
   0.5000000000000000    0.5000000000000000    0.0000000000000000 Mn
   0.5000000000000000    0.0000000000000000    0.5000000000000000 Mn
   0.0000000000000000    0.5000000000000000    0.5000000000000000 Mn
   0.7305620000000000    0.7305620000000000    0.7305620000000000 O
   0.2478870000000000    0.2478870000000000    0.7061200000000000 O
   0.2478870000000000    0.7061200000000000    0.2478870000000000 O
   0.7061200000000000    0.2478870000000000    0.2478870000000000 O
   0.2938800000000000    0.7521130000000000    0.7521130000000000 O
   0.7521130000000000    0.2938800000000000    0.7521130000000000 O
   0.7521130000000000    0.7521130000000000    0.2938800000000000 O
   0.2694380000000000    0.2694380000000000    0.2694380000000000 O
