Mn5 O8
1.0
      4.1961643342       0.0000000000       2.6260701125
      1.4544738771       3.9360260239       2.6260701125
      0.0000000000       0.0000000000       4.9501559200
Mn O
5 8
direct
   0.5000000000000000    0.5000000000000000    0.5000000000000000 Mn
   0.0000000000000000    0.0000000000000000    0.0000000000000000 Mn
   0.5000000000000000    0.5000000000000000    0.0000000000000000 Mn
   0.5000000000000000    0.0000000000000000    0.5000000000000000 Mn
   0.0000000000000000    0.5000000000000000    0.5000000000000000 Mn
   0.7305620000000000    0.7305620000000000    0.7305620000000000 O
   0.2478870000000000    0.2478870000000000    0.7061200000000000 O
   0.2478870000000000    0.7061200000000000    0.2478870000000000 O
   0.7061200000000000    0.2478870000000000    0.2478870000000000 O
   0.2938800000000000    0.7521130000000000    0.7521130000000000 O
   0.7521130000000000    0.2938800000000000    0.7521130000000000 O
   0.7521130000000000    0.7521130000000000    0.2938800000000000 O
   0.2694380000000000    0.2694380000000000    0.2694380000000000 O
