Mn5 O8
1.0
      4.9829451469       0.0000000000       3.1184582585
      1.7271877291       4.6740309034       3.1184582585
      0.0000000000       0.0000000000       5.8783101550
Mn O
5 8
direct
   0.5000000000000000    0.5000000000000000    0.5000000000000000 Mn
   0.0000000000000000    0.0000000000000000    0.0000000000000000 Mn
   0.5000000000000000    0.5000000000000000    0.0000000000000000 Mn
   0.5000000000000000    0.0000000000000000    0.5000000000000000 Mn
   0.0000000000000000    0.5000000000000000    0.5000000000000000 Mn
   0.7305620000000000    0.7305620000000000    0.7305620000000000 O
   0.2478870000000000    0.2478870000000000    0.7061200000000000 O
   0.2478870000000000    0.7061200000000000    0.2478870000000000 O
   0.7061200000000000    0.2478870000000000    0.2478870000000000 O
   0.2938800000000000    0.7521130000000000    0.7521130000000000 O
   0.7521130000000000    0.2938800000000000    0.7521130000000000 O
   0.7521130000000000    0.7521130000000000    0.2938800000000000 O
   0.2694380000000000    0.2694380000000000    0.2694380000000000 O
