Li1 O2
1.0
      2.5536529481       0.0000000000       1.4743522170
      0.8512176494       2.4076070885       1.4743522170
      0.0000000000       0.0000000000       2.9487044340
Li O
1 2
direct
   0.0000000000000000    0.0000000000000000    0.0000000000000000 Li
   0.2500000000000000    0.2500000000000000    0.2500000000000000 O
   0.7500000000000000    0.7500000000000000    0.7500000000000000 O
