Li1 O2
1.0
      2.1280441234       0.0000000000       1.2286268475
      0.7093480411       2.0063392404       1.2286268475
      0.0000000000       0.0000000000       2.4572536950
Li O
1 2
direct
   0.0000000000000000    0.0000000000000000    0.0000000000000000 Li
   0.2500000000000000    0.2500000000000000    0.2500000000000000 O
   0.7500000000000000    0.7500000000000000    0.7500000000000000 O
