Mg6 Cd6
1.0
      4.2911142790       0.0000000000       0.0000000000
     -0.0000000000       2.7355797775       0.0000000000
      0.0000000000       0.0000000000      13.4329026140
Mg Cd
6 6
direct
   0.0000000000000000    0.0000000000000000    0.6674776000000000 Mg
   0.5000000000000000    0.0000000000000000    0.5504945200000000 Mg
   0.5000000000000000    0.5000000000000000    0.7248218700000000 Mg
   0.0000000000000000    0.5000000000000000    0.1674776000000000 Mg
   0.5000000000000000    0.5000000000000000    0.0504945200000000 Mg
   0.5000000000000000    0.0000000000000000    0.2248218700000000 Mg
   0.0000000000000000    0.5000000000000000    0.5032890600000000 Cd
   0.0000000000000000    0.5000000000000000    0.8316002700000000 Cd
   0.5000000000000000    0.0000000000000000    0.8889836800000001 Cd
   0.0000000000000000    0.0000000000000000    0.0032890600000000 Cd
   0.0000000000000000    0.0000000000000000    0.3316002700000000 Cd
   0.5000000000000000    0.5000000000000000    0.3889836800000000 Cd
