Mn1 Ir1
1.0
      1.8991599163       0.0000000000       2.7965779301
      0.8598178109       1.6933758354       2.7965779301
      0.0000000000       0.0000000000       3.3804816975
Mn Ir
1 1
direct
   0.5000000000000000    0.5000000000000000    0.5000000000000000 Mn
   0.0000000000000000    0.0000000000000000    0.0000000000000000 Ir
