Mn1 Ir1
1.0
      2.4056025607       0.0000000000       3.5423320448
      1.0891025605       2.1449427248       3.5423320448
      0.0000000000       0.0000000000       4.2819434835
Mn Ir
1 1
direct
   0.5000000000000000    0.5000000000000000    0.5000000000000000 Mn
   0.0000000000000000    0.0000000000000000    0.0000000000000000 Ir
