Mn1 Ir1
1.0
      2.1523812385       0.0000000000       3.1694549875
      0.9744601857       1.9191592801       3.1694549875
      0.0000000000       0.0000000000       3.8312125905
Mn Ir
1 1
direct
   0.5000000000000000    0.5000000000000000    0.5000000000000000 Mn
   0.0000000000000000    0.0000000000000000    0.0000000000000000 Ir
