Mn1 Ir1
1.0
      2.2789918996       0.0000000000       3.3558935162
      1.0317813731       2.0320510024       3.3558935162
      0.0000000000       0.0000000000       4.0565780370
Mn Ir
1 1
direct
   0.5000000000000000    0.5000000000000000    0.5000000000000000 Mn
   0.0000000000000000    0.0000000000000000    0.0000000000000000 Ir
