Mn1 Ir1
1.0
      2.0257705774       0.0000000000       2.9830164588
      0.9171389983       1.8062675577       2.9830164588
      0.0000000000       0.0000000000       3.6058471440
Mn Ir
1 1
direct
   0.5000000000000000    0.5000000000000000    0.5000000000000000 Mn
   0.0000000000000000    0.0000000000000000    0.0000000000000000 Ir
