K3 Li1
1.0
      5.6389222682       0.0000000000       3.2556332895
      1.8796407561       5.3164268993       3.2556332895
      0.0000000000       0.0000000000       6.5112665790
K Li
3 1
direct
   0.2500000000000000    0.2500000000000000    0.2500000000000000 K
   0.7500000000000000    0.7500000000000000    0.7500000000000000 K
   0.5000000000000000    0.5000000000000000    0.5000000000000000 K
   0.0000000000000000    0.0000000000000000    0.0000000000000000 Li
