K3 Li1
1.0
      4.4517807381       0.0000000000       2.5702368075
      1.4839269127       4.1971791310       2.5702368075
      0.0000000000       0.0000000000       5.1404736150
K Li
3 1
direct
   0.2500000000000000    0.2500000000000000    0.2500000000000000 K
   0.7500000000000000    0.7500000000000000    0.7500000000000000 K
   0.5000000000000000    0.5000000000000000    0.5000000000000000 K
   0.0000000000000000    0.0000000000000000    0.0000000000000000 Li
