K3 Li1
1.0
      5.0453515032       0.0000000000       2.9129350485
      1.6817838344       4.7568030151       2.9129350485
      0.0000000000       0.0000000000       5.8258700970
K Li
3 1
direct
   0.2500000000000000    0.2500000000000000    0.2500000000000000 K
   0.7500000000000000    0.7500000000000000    0.7500000000000000 K
   0.5000000000000000    0.5000000000000000    0.5000000000000000 K
   0.0000000000000000    0.0000000000000000    0.0000000000000000 Li
