Li1 Au1
1.0
      2.6585341409       0.0000000000       3.4604485536
      1.1757997888       2.3843864274       3.4604485536
      0.0000000000       0.0000000000       4.3637720185
Li Au
1 1
direct
   0.5000000000000000    0.5000000000000000    0.5000000000000000 Li
   0.0000000000000000    0.0000000000000000    0.0000000000000000 Au
