Li1 Pb3
1.0
      3.2827153349       0.0000000000      -3.0173761633
     -0.6329103013       3.2211247291      -3.0173761633
      0.0000000000       0.0000000000       4.4587867050
Li Pb
1 3
direct
   0.0000000000000000    0.0000000000000000    0.0000000000000000 Li
   0.7500000000000000    0.2500000000000000    0.5000000000000000 Pb
   0.2500000000000000    0.7500000000000000    0.5000000000000000 Pb
   0.5000000000000000    0.5000000000000000    0.0000000000000000 Pb
