Li1 Pb3
1.0
      3.5015630239       0.0000000000      -3.2185345742
     -0.6751043214       3.4358663777      -3.2185345742
      0.0000000000       0.0000000000       4.7560391520
Li Pb
1 3
direct
   0.0000000000000000    0.0000000000000000    0.0000000000000000 Li
   0.7500000000000000    0.2500000000000000    0.5000000000000000 Pb
   0.2500000000000000    0.7500000000000000    0.5000000000000000 Pb
   0.5000000000000000    0.5000000000000000    0.0000000000000000 Pb
