Li1 Pb3
1.0
      4.1581060909       0.0000000000      -3.8220098068
     -0.8016863817       4.0800913235      -3.8220098068
      0.0000000000       0.0000000000       5.6477964930
Li Pb
1 3
direct
   0.0000000000000000    0.0000000000000000    0.0000000000000000 Li
   0.7500000000000000    0.2500000000000000    0.5000000000000000 Pb
   0.2500000000000000    0.7500000000000000    0.5000000000000000 Pb
   0.5000000000000000    0.5000000000000000    0.0000000000000000 Pb
