Li1 Pb3
1.0
      3.7204107129       0.0000000000      -3.4196929851
     -0.7172983415       3.6506080263      -3.4196929851
      0.0000000000       0.0000000000       5.0532915990
Li Pb
1 3
direct
   0.0000000000000000    0.0000000000000000    0.0000000000000000 Li
   0.7500000000000000    0.2500000000000000    0.5000000000000000 Pb
   0.2500000000000000    0.7500000000000000    0.5000000000000000 Pb
   0.5000000000000000    0.5000000000000000    0.0000000000000000 Pb
