K2 Th6
1.0
      6.6720759570       0.0000000000       0.0000000000
     -3.3360377314       5.7781874174       0.0000000000
      0.0000000000       0.0000000000       5.4106299000
K Th
2 6
direct
   0.6666666666666666    0.3333333333333333    0.2500000000000000 K
   0.3333333333333333    0.6666666666666666    0.7500000000000000 K
   0.8441760000000000    0.1558240000000000    0.7500000000000000 Th
   0.3116480000000000    0.1558240000000000    0.7500000000000000 Th
   0.8441760000000000    0.6883520000000000    0.7500000000000000 Th
   0.1558240000000000    0.8441760000000000    0.2500000000000000 Th
   0.6883520000000000    0.8441760000000000    0.2500000000000000 Th
   0.1558240000000000    0.3116480000000000    0.2500000000000000 Th
