K2 Th6
1.0
      7.0427468435       0.0000000000       0.0000000000
     -3.5213731609       6.0991978295       0.0000000000
      0.0000000000       0.0000000000       5.7112204500
K Th
2 6
direct
   0.6666666666666666    0.3333333333333333    0.2500000000000000 K
   0.3333333333333333    0.6666666666666666    0.7500000000000000 K
   0.8441760000000000    0.1558240000000000    0.7500000000000000 Th
   0.3116480000000000    0.1558240000000000    0.7500000000000000 Th
   0.8441760000000000    0.6883520000000000    0.7500000000000000 Th
   0.1558240000000000    0.8441760000000000    0.2500000000000000 Th
   0.6883520000000000    0.8441760000000000    0.2500000000000000 Th
   0.1558240000000000    0.3116480000000000    0.2500000000000000 Th
