Li1 Y3
1.0
      4.5375075497       0.0000000000       2.6197312053
      1.5125025166       4.2780031441       2.6197312053
      0.0000000000       0.0000000000       5.2394624105
Li Y
1 3
direct
   0.0000000000000000    0.0000000000000000    0.0000000000000000 Li
   0.2500000000000000    0.2500000000000000    0.2500000000000000 Y
   0.7500000000000000    0.7500000000000000    0.7500000000000000 Y
   0.5000000000000000    0.5000000000000000    0.5000000000000000 Y
