Li1 Y3
1.0
      3.5822428024       0.0000000000       2.0682088463
      1.1940809341       3.3773709032       2.0682088463
      0.0000000000       0.0000000000       4.1364176925
Li Y
1 3
direct
   0.0000000000000000    0.0000000000000000    0.0000000000000000 Li
   0.2500000000000000    0.2500000000000000    0.2500000000000000 Y
   0.7500000000000000    0.7500000000000000    0.7500000000000000 Y
   0.5000000000000000    0.5000000000000000    0.5000000000000000 Y
