Mn2 Ru6
1.0
      4.8501699480       0.0000000000       0.0000000000
     -2.4250185716       4.2003616476       0.0000000000
      0.0000000000       0.0000000000       3.8746762830
Mn Ru
2 6
direct
   0.6666666666666666    0.3333333333333333    0.2500000000000000 Mn
   0.3333333333333333    0.6666666666666666    0.7500000000000000 Mn
   0.8324776400000000    0.1675123200000000    0.7500000000000000 Ru
   0.3350346800000000    0.1675020600000000    0.7500000000000000 Ru
   0.8324991300000000    0.6649752000000000    0.7500000000000000 Ru
   0.1675223600000000    0.8324876800000000    0.2500000000000000 Ru
   0.6649653200000000    0.8324999400000000    0.2500000000000000 Ru
   0.1675038700000000    0.3350208000000000    0.2500000000000000 Ru
