K6 Er2
1.0
      7.7365710630       0.0000000000       0.0000000000
     -3.8682855970       6.7000670409       0.0000000000
      0.0000000000       0.0000000000       6.3555606000
K Er
6 2
direct
   0.1722990000000000    0.3445990000000000    0.2500000000000000 K
   0.6554010000000000    0.8277010000000000    0.2500000000000000 K
   0.1722990000000000    0.8277010000000000    0.2500000000000000 K
   0.8277010000000000    0.6554010000000000    0.7500000000000000 K
   0.3445990000000000    0.1722990000000000    0.7500000000000000 K
   0.8277010000000000    0.1722990000000000    0.7500000000000000 K
   0.3333333333333333    0.6666666666666666    0.7500000000000000 Er
   0.6666666666666666    0.3333333333333333    0.2500000000000000 Er
