K6 Er2
1.0
      6.8769520560       0.0000000000       0.0000000000
     -3.4384760862       5.9556151475       0.0000000000
      0.0000000000       0.0000000000       5.6493872000
K Er
6 2
direct
   0.1722990000000000    0.3445990000000000    0.2500000000000000 K
   0.6554010000000000    0.8277010000000000    0.2500000000000000 K
   0.1722990000000000    0.8277010000000000    0.2500000000000000 K
   0.8277010000000000    0.6554010000000000    0.7500000000000000 K
   0.3445990000000000    0.1722990000000000    0.7500000000000000 K
   0.8277010000000000    0.1722990000000000    0.7500000000000000 K
   0.3333333333333333    0.6666666666666666    0.7500000000000000 Er
   0.6666666666666666    0.3333333333333333    0.2500000000000000 Er
