Li3 Zn1
1.0
      3.0354938354       0.0000000000      -2.1015227195
     -0.8333118918       2.9188720622      -2.1015227195
      0.0000000000       0.0000000000       3.6919670320
Li Zn
3 1
direct
   0.7499990000000000    0.2500000000000000    0.4999990000000000 Li
   0.2500000000000000    0.7499990000000000    0.4999990000000000 Li
   0.5000000000000000    0.5000000000000000    0.0000000000000000 Li
   0.0000000000000000    0.0000000000000000    0.0000000000000000 Zn
