Li3 Zn1
1.0
      3.4149305648       0.0000000000      -2.3642130595
     -0.9374758783       3.2837310700      -2.3642130595
      0.0000000000       0.0000000000       4.1534629110
Li Zn
3 1
direct
   0.7499990000000000    0.2500000000000000    0.4999990000000000 Li
   0.2500000000000000    0.7499990000000000    0.4999990000000000 Li
   0.5000000000000000    0.5000000000000000    0.0000000000000000 Li
   0.0000000000000000    0.0000000000000000    0.0000000000000000 Zn
