Li3 Zn1
1.0
      3.2252122001       0.0000000000      -2.2328678895
     -0.8853938851       3.1013015661      -2.2328678895
      0.0000000000       0.0000000000       3.9227149715
Li Zn
3 1
direct
   0.7499990000000000    0.2500000000000000    0.4999990000000000 Li
   0.2500000000000000    0.7499990000000000    0.4999990000000000 Li
   0.5000000000000000    0.5000000000000000    0.0000000000000000 Li
   0.0000000000000000    0.0000000000000000    0.0000000000000000 Zn
