Li1 Mn1
1.0
      2.1655909545       0.0000000000       0.0060571743
     -1.0805732769       1.8768320448      -0.0060606234
      0.0000000000       0.0000000000       3.9574494225
Li Mn
1 1
direct
   0.6666666666666666    0.3333333333333333    0.7500070000000000 Li
   0.3332720000000000    0.6666666666666666    0.2499900000000000 Mn
