Li1 Mn1
1.0
      2.0382032513       0.0000000000       0.0057008699
     -1.0170101430       1.7664301598      -0.0057041161
      0.0000000000       0.0000000000       3.7246582800
Li Mn
1 1
direct
   0.6666666666666666    0.3333333333333333    0.7500070000000000 Li
   0.3332720000000000    0.6666666666666666    0.2499900000000000 Mn
