Li4 In2
1.0
      4.2115623390       0.0000000000       0.0000000000
     -0.0000000000       3.8278497119      -1.7858547446
      0.0000000000       0.0000000000       4.9952849400
Li In
4 2
direct
   0.7500000000000000    0.7573550600000000    0.5147091100000000 Li
   0.2500000000000000    0.2426449400000000    0.4852908900000000 Li
   0.7500000000000000    0.4105465400000000    0.8210950800000000 Li
   0.2500000000000000    0.5894534600000000    0.1789049200000000 Li
   0.7500000000000000    0.0873100800000000    0.1746201700000000 In
   0.2500000000000000    0.9126899200000000    0.8253798300000000 In
