Li1 Ir1
1.0
      2.1224661600       0.0000000000       0.0000000000
     -1.0612031768       1.8381271177       0.0000000000
      0.0000000000       0.0000000000       3.4841180000
Li Ir
1 1
direct
   0.3333333333333333    0.6666666666666666    0.5000000000000000 Li
   0.9999999500000000    0.0000000600000000    0.0000000000000000 Ir
