Mn4 As2
1.0
      2.8920120000       0.0000000000       0.0000000000
     -0.0000000000       2.8920120000       0.0000000000
      0.0000000000       0.0000000000       5.0679336000
Mn As
4 2
direct
   0.5000000000000000    0.0000000000000000    0.3528180000000000 Mn
   0.5000000000000000    0.5000000000000000    0.0000000000000000 Mn
   0.0000000000000000    0.0000000000000000    0.0000000000000000 Mn
   0.0000000000000000    0.5000000000000000    0.6471820000000000 Mn
   0.5000000000000000    0.0000000000000000    0.7383260000000000 As
   0.0000000000000000    0.5000000000000000    0.2616740000000000 As
