Mn2 Cu6
1.0
      4.4165577210       0.0000000000       0.0000000000
     -2.2082790835       3.8248510549       0.0000000000
      0.0000000000       0.0000000000       3.6039660000
Mn Cu
2 6
direct
   0.6666666666666666    0.3333333333333333    0.2500000000000000 Mn
   0.3333333333333333    0.6666666666666666    0.7500000000000000 Mn
   0.8340730000000000    0.6681460000000000    0.7500000000000000 Cu
   0.8340730000000000    0.1659270000000000    0.7500000000000000 Cu
   0.1659270000000000    0.3318540000000000    0.2500000000000000 Cu
   0.6681460000000000    0.8340730000000000    0.2500000000000000 Cu
   0.1659270000000000    0.8340730000000000    0.2500000000000000 Cu
   0.3318540000000000    0.1659270000000000    0.7500000000000000 Cu
