Mn2 O4
1.0
      2.1503084550       0.0000000000       0.0000000000
     -0.0000000000       3.3003138430      -0.0001148548
      0.0000000000       0.0000000000       3.3003138450
Mn O
2 4
direct
   0.0000000000000000    0.0000000000000000    0.0000000000000000 Mn
   0.5000000000000000    0.5000000000000000    0.5000000000000000 Mn
   0.0000000000000000    0.3049161500000000    0.3049161500000000 O
   0.5000000000000000    0.1950025000000000    0.8049975000000000 O
   0.0000000000000000    0.6950838499999999    0.6950838499999999 O
   0.5000000000000000    0.8049975000000000    0.1950025000000000 O
