Cu4 S2
1.0
      3.9472362148       0.0000000000      -0.5117028384
     -3.0479369237       2.5081376048      -0.5117028384
      0.0000000000       0.0000000000       3.9802655100
Cu S
4 2
direct
   0.1250000000000000    0.8743731100000000    0.2493731100000000 Cu
   0.1256268900000000    0.3750000000000000    0.2506268900000000 Cu
   0.6250000000000000    0.8756268900000000    0.7506268900000000 Cu
   0.1243731100000000    0.8750000000000000    0.7493731100000000 Cu
   0.5000000000000000    0.5000000000000000    0.0000000000000000 S
   0.7500000000000000    0.2500000000000000    0.5000000000000000 S
