Cu4 S2
1.0
      4.4735343768       0.0000000000      -0.5799298835
     -3.4543285135       2.8425559521      -0.5799298835
      0.0000000000       0.0000000000       4.5109675780
Cu S
4 2
direct
   0.1250000000000000    0.8743731100000000    0.2493731100000000 Cu
   0.1256268900000000    0.3750000000000000    0.2506268900000000 Cu
   0.6250000000000000    0.8756268900000000    0.7506268900000000 Cu
   0.1243731100000000    0.8750000000000000    0.7493731100000000 Cu
   0.5000000000000000    0.5000000000000000    0.0000000000000000 S
   0.7500000000000000    0.2500000000000000    0.5000000000000000 S
