Li2 Mg2
1.0
      4.8911559731       0.0000000000       2.3128953223
      3.8400304313       3.0294509469       2.3128953223
      0.0000000000       0.0000000000       4.6544824780
Li Mg
2 2
direct
   0.6332994800000000    0.6332994800000000    0.6164588100000000 Li
   0.3667005200000000    0.3667005200000000    0.3835411900000000 Li
   0.8846043800000000    0.8846043800000000    0.8645454700000000 Mg
   0.1153956200000000    0.1153956200000000    0.1354545300000000 Mg
