Mn6 As2
1.0
      3.2188242143       0.0000000000      -0.6917527781
     -0.0000000000       3.4889167530       0.0000000000
      0.0000000000       0.0000000000       7.8346910700
Mn As
6 2
direct
   0.9401915199999999    0.2500000000000000    0.8803820400000000 Mn
   0.0598376000000000    0.7500000000000000    0.1196742000000000 Mn
   0.5546319900000000    0.2500000000000000    0.1092649700000000 Mn
   0.4453520500000000    0.7500000000000000    0.8907040899999999 Mn
   0.3106591000000000    0.2500000000000000    0.6213172100000000 Mn
   0.6893360600000000    0.7500000000000000    0.3786741300000000 Mn
   0.1616007000000000    0.2500000000000000    0.3232004000000000 As
   0.8383909800000000    0.7500000000000000    0.6767829500000000 As
