Ga1 Cu3
1.0
      3.0985856310       0.0000000000       0.0000000000
     -0.0000000000       3.0985856310       0.0000000000
      0.0000000000       0.0000000000       3.0985856310
Ga Cu
1 3
direct
   0.0000000000000000    0.0000000000000000    0.0000000000000000 Ga
   0.5000000000000000    0.0000000000000000    0.5000000000000000 Cu
   0.5000000000000000    0.5000000000000000    0.0000000000000000 Cu
   0.0000000000000000    0.5000000000000000    0.5000000000000000 Cu
