Mn4 O4
1.0
      2.8391447606       0.0000000000      -0.0000502655
      0.0000038748       3.9573530190      -0.0000000525
      0.0000000000       0.0000000000       5.5738685790
Mn O
4 4
direct
   0.5000034200000000    0.4999994700000000    0.7391394000000000 Mn
   0.0000015100000000    0.0000003800000000    0.0108515700000000 Mn
   0.4999728200000000    0.4999994700000000    0.2391347600000000 Mn
   0.0000086800000000    0.0000000600000000    0.5107880900000000 Mn
   0.0000023800000000    0.4999998600000000    0.4931410300000000 O
   0.5000038600000000    0.0000005500000000    0.7569231100000000 O
   0.0000030600000000    0.4999995100000000    0.9931031900000000 O
   0.5000042700000000    0.0000007000000000    0.2569198400000000 O
