Cu4 N12
1.0
      6.3930626887       0.0000000000      -1.0514528683
     -4.6077655431       4.4316754441      -1.0514528683
      0.0000000000       0.0000000000       6.4789508160
Cu N
4 12
direct
   0.1250000000000000    0.8750000000000000    0.7500000000000000 Cu
   0.1250000000000000    0.8750000000000000    0.2500000000000000 Cu
   0.6250000000000000    0.8750000000000000    0.7500000000000000 Cu
   0.1250000000000000    0.3750000000000000    0.2500000000000000 Cu
   0.8162550000000000    0.6102140000000000    0.7939590000000000 N
   0.8602140000000000    0.5662550000000000    0.2939590000000000 N
   0.2722950000000000    0.5662550000000000    0.7060410000000000 N
   0.8162550000000000    0.0222950000000000    0.2060410000000000 N
   0.6250000000000000    0.8750000000000000    0.2500000000000000 N
   0.1250000000000000    0.3750000000000000    0.7500000000000000 N
   0.6250000000000000    0.3750000000000000    0.2500000000000000 N
   0.6250000000000000    0.3750000000000000    0.7500000000000000 N
   0.4337450000000000    0.7277050000000000    0.2939590000000000 N
   0.9777050000000000    0.1837450000000000    0.7939590000000000 N
   0.3897860000000000    0.1837450000000000    0.2060410000000000 N
   0.4337450000000000    0.1397860000000000    0.7060410000000000 N
