Cu4 N12
1.0
      6.7482328381       0.0000000000      -1.1098669166
     -4.8637525177       4.6778796355      -1.1098669166
      0.0000000000       0.0000000000       6.8388925280
Cu N
4 12
direct
   0.1250000000000000    0.8750000000000000    0.7500000000000000 Cu
   0.1250000000000000    0.8750000000000000    0.2500000000000000 Cu
   0.6250000000000000    0.8750000000000000    0.7500000000000000 Cu
   0.1250000000000000    0.3750000000000000    0.2500000000000000 Cu
   0.8162550000000000    0.6102140000000000    0.7939590000000000 N
   0.8602140000000000    0.5662550000000000    0.2939590000000000 N
   0.2722950000000000    0.5662550000000000    0.7060410000000000 N
   0.8162550000000000    0.0222950000000000    0.2060410000000000 N
   0.6250000000000000    0.8750000000000000    0.2500000000000000 N
   0.1250000000000000    0.3750000000000000    0.7500000000000000 N
   0.6250000000000000    0.3750000000000000    0.2500000000000000 N
   0.6250000000000000    0.3750000000000000    0.7500000000000000 N
   0.4337450000000000    0.7277050000000000    0.2939590000000000 N
   0.9777050000000000    0.1837450000000000    0.7939590000000000 N
   0.3897860000000000    0.1837450000000000    0.2060410000000000 N
   0.4337450000000000    0.1397860000000000    0.7060410000000000 N
