Mn2 O4
1.0
      2.3233264000       0.0000000000      -0.0000014042
     -0.0000007996       4.9314112000      -0.0000078478
      0.0000000000       0.0000000000       3.0758480000
Mn O
2 4
direct
   0.9999990000000000    0.9683070000000000    0.0000000000000000 Mn
   0.5000000000000000    0.2817040000000000    0.5000010000000000 Mn
   0.0000000000000000    0.0468050000000000    0.5000000000000000 O
   0.5000000000000000    0.2031980000000000    0.0000000000000000 O
   0.0000000000000000    0.4625730000000000    0.5000000000000000 O
   0.5000000000000000    0.7874130000000000    0.9999990000000000 O
