Mn2 O4
1.0
      2.1781185000       0.0000000000      -0.0000013165
     -0.0000007496       4.6231980000      -0.0000073573
      0.0000000000       0.0000000000       2.8836075000
Mn O
2 4
direct
   0.9999990000000000    0.9683070000000000    0.0000000000000000 Mn
   0.5000000000000000    0.2817040000000000    0.5000010000000000 Mn
   0.0000000000000000    0.0468050000000000    0.5000000000000000 O
   0.5000000000000000    0.2031980000000000    0.0000000000000000 O
   0.0000000000000000    0.4625730000000000    0.5000000000000000 O
   0.5000000000000000    0.7874130000000000    0.9999990000000000 O
