Mn2 O4
1.0
      2.6137422000       0.0000000000      -0.0000015798
     -0.0000008995       5.5478376000      -0.0000088288
      0.0000000000       0.0000000000       3.4603290000
Mn O
2 4
direct
   0.9999990000000000    0.9683070000000000    0.0000000000000000 Mn
   0.5000000000000000    0.2817040000000000    0.5000010000000000 Mn
   0.0000000000000000    0.0468050000000000    0.5000000000000000 O
   0.5000000000000000    0.2031980000000000    0.0000000000000000 O
   0.0000000000000000    0.4625730000000000    0.5000000000000000 O
   0.5000000000000000    0.7874130000000000    0.9999990000000000 O
