Li4 Ca2
1.0
      4.5754182241       0.0000000000       2.6416189870
      1.5251388193       4.3137446656       2.6416184692
      0.0000000000       0.0000000000       5.2832373220
Li Ca
4 2
direct
   0.5000000000000000    0.0000000000000000    0.5000000000000000 Li
   0.0000000000000000    0.5000000000000000    0.5000000000000000 Li
   0.5000000000000000    0.5000000000000000    0.5000000000000000 Li
   0.5000000000000000    0.5000000000000000    0.0000000000000000 Li
   0.1250000000000000    0.1250000000000000    0.1250000000000000 Ca
   0.8750000000000000    0.8750000000000000    0.8750000000000000 Ca
