Li4 Ca2
1.0
      4.0371337271       0.0000000000       2.3308402826
      1.3457107229       3.8062452932       2.3308398258
      0.0000000000       0.0000000000       4.6616799900
Li Ca
4 2
direct
   0.5000000000000000    0.0000000000000000    0.5000000000000000 Li
   0.0000000000000000    0.5000000000000000    0.5000000000000000 Li
   0.5000000000000000    0.5000000000000000    0.5000000000000000 Li
   0.5000000000000000    0.5000000000000000    0.0000000000000000 Li
   0.1250000000000000    0.1250000000000000    0.1250000000000000 Ca
   0.8750000000000000    0.8750000000000000    0.8750000000000000 Ca
