Li4 Ca2
1.0
      4.3062759756       0.0000000000       2.4862296348
      1.4354247711       4.0599949794       2.4862291475
      0.0000000000       0.0000000000       4.9724586560
Li Ca
4 2
direct
   0.5000000000000000    0.0000000000000000    0.5000000000000000 Li
   0.0000000000000000    0.5000000000000000    0.5000000000000000 Li
   0.5000000000000000    0.5000000000000000    0.5000000000000000 Li
   0.5000000000000000    0.5000000000000000    0.0000000000000000 Li
   0.1250000000000000    0.1250000000000000    0.1250000000000000 Ca
   0.8750000000000000    0.8750000000000000    0.8750000000000000 Ca
