Li4 Ca2
1.0
      5.1137027210       0.0000000000       2.9523976913
      1.7045669157       4.8212440380       2.9523971127
      0.0000000000       0.0000000000       5.9047946540
Li Ca
4 2
direct
   0.5000000000000000    0.0000000000000000    0.5000000000000000 Li
   0.0000000000000000    0.5000000000000000    0.5000000000000000 Li
   0.5000000000000000    0.5000000000000000    0.5000000000000000 Li
   0.5000000000000000    0.5000000000000000    0.0000000000000000 Li
   0.1250000000000000    0.1250000000000000    0.1250000000000000 Ca
   0.8750000000000000    0.8750000000000000    0.8750000000000000 Ca
