Li1 Br1
1.0
      3.0011409197       0.0000000000       1.7327104984
      1.0003809232       2.8295034674       1.7327105010
      0.0000000000       0.0000000000       3.4654191480
Li Br
1 1
direct
   0.0000000000000000    0.0000000000000000    0.0000000000000000 Li
   0.5000000000000000    0.5000000000000000    0.5000000000000000 Br
