Al2 Cu6
1.0
      4.1103338320       0.0000000000       0.0000000000
     -2.0551667942       3.5596535869       0.0000000000
      0.0000000000       0.0000000000       3.3649120480
Al Cu
2 6
direct
   0.3333333333333333    0.6666666666666666    0.7500000000000000 Al
   0.6666666666666666    0.3333333333333333    0.2500000000000000 Al
   0.1655323600000000    0.3310657100000000    0.2500000000000000 Cu
   0.6689342900000000    0.8344676400000000    0.2500000000000000 Cu
   0.1655323600000000    0.8344676400000000    0.2500000000000000 Cu
   0.8344676400000000    0.6689342900000000    0.7500000000000000 Cu
   0.3310657100000000    0.1655323600000000    0.7500000000000000 Cu
   0.8344676400000000    0.1655323600000000    0.7500000000000000 Cu
