K2 Fe2
1.0
      4.4314623473       0.0000000000       0.7166900097
     -2.0013721167       3.9537789754       0.7166900097
      0.0000000000       0.0000000000       3.3114561075
K Fe
2 2
direct
   0.1635710000000000    0.8364290000000000    0.2500000000000000 K
   0.8364290000000000    0.1635710000000000    0.7500000000000000 K
   0.5231209999999999    0.4768790000000000    0.2500000000000000 Fe
   0.4768790000000000    0.5231209999999999    0.7500000000000000 Fe
