K2 Fe2
1.0
      4.7268931705       0.0000000000       0.7644693436
     -2.1347969245       4.2173642404       0.7644693436
      0.0000000000       0.0000000000       3.5322198480
K Fe
2 2
direct
   0.1635710000000000    0.8364290000000000    0.2500000000000000 K
   0.8364290000000000    0.1635710000000000    0.7500000000000000 K
   0.5231209999999999    0.4768790000000000    0.2500000000000000 Fe
   0.4768790000000000    0.5231209999999999    0.7500000000000000 Fe
