K2 Fe2
1.0
      5.3177548168       0.0000000000       0.8600280116
     -2.4016465400       4.7445347704       0.8600280116
      0.0000000000       0.0000000000       3.9737473290
K Fe
2 2
direct
   0.1635710000000000    0.8364290000000000    0.2500000000000000 K
   0.8364290000000000    0.1635710000000000    0.7500000000000000 K
   0.5231209999999999    0.4768790000000000    0.2500000000000000 Fe
   0.4768790000000000    0.5231209999999999    0.7500000000000000 Fe
