K2 Fe2
1.0
      5.6131856399       0.0000000000       0.9078073456
     -2.5350713478       5.0081200355       0.9078073456
      0.0000000000       0.0000000000       4.1945110695
K Fe
2 2
direct
   0.1635710000000000    0.8364290000000000    0.2500000000000000 K
   0.8364290000000000    0.1635710000000000    0.7500000000000000 K
   0.5231209999999999    0.4768790000000000    0.2500000000000000 Fe
   0.4768790000000000    0.5231209999999999    0.7500000000000000 Fe
