K2 Fe2
1.0
      5.0223239936       0.0000000000       0.8122486776
     -2.2682217323       4.4809495054       0.8122486776
      0.0000000000       0.0000000000       3.7529835885
K Fe
2 2
direct
   0.1635710000000000    0.8364290000000000    0.2500000000000000 K
   0.8364290000000000    0.1635710000000000    0.7500000000000000 K
   0.5231209999999999    0.4768790000000000    0.2500000000000000 Fe
   0.4768790000000000    0.5231209999999999    0.7500000000000000 Fe
