Zn4 Se8
1.0
      5.0993032000       0.0000000000       0.0000000000
     -0.0000000000       5.0993032000       0.0000000000
      0.0000000000       0.0000000000       5.0993032000
Zn Se
4 8
direct
   0.5000000000000000    0.5000000000000000    0.0000000000000000 Zn
   0.5000000000000000    0.0000000000000000    0.5000000000000000 Zn
   0.0000000000000000    0.5000000000000000    0.5000000000000000 Zn
   0.0000000000000000    0.0000000000000000    0.0000000000000000 Zn
   0.1085230000000000    0.8914770000000000    0.3914770000000000 Se
   0.8914770000000000    0.3914770000000000    0.1085230000000000 Se
   0.3914770000000000    0.1085230000000000    0.8914770000000000 Se
   0.6085230000000000    0.6085230000000000    0.6085230000000000 Se
   0.8914770000000000    0.1085230000000000    0.6085230000000000 Se
   0.1085230000000000    0.6085230000000000    0.8914770000000000 Se
   0.6085230000000000    0.8914770000000000    0.1085230000000000 Se
   0.3914770000000000    0.3914770000000000    0.3914770000000000 Se
