Li3 Mg1
1.0
      3.5416847405       0.0000000000      -3.1345989097
     -0.7183221563       3.4680749820      -3.1345989097
      0.0000000000       0.0000000000       4.7296132110
Li Mg
3 1
direct
   0.5000000000000000    0.5000000000000000    0.0000000000000000 Li
   0.2500000000000000    0.7500000000000000    0.5000000000000000 Li
   0.7500000000000000    0.2500000000000000    0.5000000000000000 Li
   0.0000000000000000    0.0000000000000000    0.0000000000000000 Mg
