Li3 Mg1
1.0
      3.1481642138       0.0000000000      -2.7863101419
     -0.6385085833       3.0827333174      -2.7863101419
      0.0000000000       0.0000000000       4.2041006320
Li Mg
3 1
direct
   0.5000000000000000    0.5000000000000000    0.0000000000000000 Li
   0.2500000000000000    0.7500000000000000    0.5000000000000000 Li
   0.7500000000000000    0.2500000000000000    0.5000000000000000 Li
   0.0000000000000000    0.0000000000000000    0.0000000000000000 Mg
