Li3 Mg1
1.0
      3.7384450039       0.0000000000      -3.3087432936
     -0.7582289427       3.6607458144      -3.3087432936
      0.0000000000       0.0000000000       4.9923695005
Li Mg
3 1
direct
   0.5000000000000000    0.5000000000000000    0.0000000000000000 Li
   0.2500000000000000    0.7500000000000000    0.5000000000000000 Li
   0.7500000000000000    0.2500000000000000    0.5000000000000000 Li
   0.0000000000000000    0.0000000000000000    0.0000000000000000 Mg
