Mn2 S4
1.0
      4.1424712841       0.0000000000      -3.1508415156
     -1.0182152989       4.0153836609      -3.1508415156
      0.0000000000       0.0000000000       5.2046009065
Mn S
2 4
direct
   0.7500000000000000    0.2500000000000000    0.5000000000000000 Mn
   0.0000000000000000    0.0000000000000000    0.0000000000000000 Mn
   0.8750000000000000    0.9288620000000000    0.5538620000000000 S
   0.0711380000000000    0.6250000000000000    0.9461380000000000 S
   0.3750000000000000    0.3211380000000000    0.4461380000000000 S
   0.6788620000000000    0.1250000000000000    0.0538620000000000 S
