Mn2 S4
1.0
      3.6551217212       0.0000000000      -2.7801542785
     -0.8984252637       3.5429855832      -2.7801542785
      0.0000000000       0.0000000000       4.5922949175
Mn S
2 4
direct
   0.7500000000000000    0.2500000000000000    0.5000000000000000 Mn
   0.0000000000000000    0.0000000000000000    0.0000000000000000 Mn
   0.8750000000000000    0.9288620000000000    0.5538620000000000 S
   0.0711380000000000    0.6250000000000000    0.9461380000000000 S
   0.3750000000000000    0.3211380000000000    0.4461380000000000 S
   0.6788620000000000    0.1250000000000000    0.0538620000000000 S
