K3 Cr1
1.0
      5.3263953000       0.0000000000       0.0000000000
     -0.0000000000       5.3263953000       0.0000000000
      0.0000000000       0.0000000000       5.3263953000
K Cr
3 1
direct
   0.0000000000000000    0.5000000000000000    0.5000000000000000 K
   0.5000000000000000    0.0000000000000000    0.5000000000000000 K
   0.5000000000000000    0.5000000000000000    0.0000000000000000 K
   0.0000000000000000    0.0000000000000000    0.0000000000000000 Cr
