V4 Zn5
1.0
      2.7774221303       0.0000000000       0.7130986637
      1.3878831566       5.5842680988       0.3597747822
      0.0000000000       0.0000000000       5.7653899560
V Zn
4 5
direct
   0.3426489700000000    0.6573520300000000    0.6573510299999999 V
   0.0000000000000000    0.3425284300000000    0.6574715700000000 V
   0.0000000000000000    0.6574715700000000    0.3425284300000000 V
   0.6573510299999999    0.3426479700000000    0.3426489700000000 V
   0.0000000000000000    0.0000000000000000    0.0000000000000000 Zn
   0.3304907300000000    0.0000272300000000    0.3389893000000000 Zn
   0.6695092700000000    0.6610107000000000    0.9999727700000000 Zn
   0.3304907300000000    0.3389893000000000    0.0000272300000000 Zn
   0.6695092700000000    0.9999727700000000    0.6610107000000000 Zn
