Li1 Hg3
1.0
      3.7132089062       0.0000000000      -3.0172695725
     -0.8411187348       3.6166890460      -3.0172695725
      0.0000000000       0.0000000000       4.7845413630
Li Hg
1 3
direct
   0.0000000000000000    0.0000000000000000    0.0000000000000000 Li
   0.7500000000000000    0.2500000000000000    0.5000000000000000 Hg
   0.2500000000000000    0.7500000000000000    0.5000000000000000 Hg
   0.5000000000000000    0.5000000000000000    0.0000000000000000 Hg
