Li1 Hg3
1.0
      3.9194982899       0.0000000000      -3.1848956598
     -0.8878475534       3.8176162152      -3.1848956598
      0.0000000000       0.0000000000       5.0503492165
Li Hg
1 3
direct
   0.0000000000000000    0.0000000000000000    0.0000000000000000 Li
   0.7500000000000000    0.2500000000000000    0.5000000000000000 Hg
   0.2500000000000000    0.7500000000000000    0.5000000000000000 Hg
   0.5000000000000000    0.5000000000000000    0.0000000000000000 Hg
