Li1 Hg3
1.0
      3.5069195226       0.0000000000      -2.8496434851
     -0.7943899162       3.4157618768      -2.8496434851
      0.0000000000       0.0000000000       4.5187335095
Li Hg
1 3
direct
   0.0000000000000000    0.0000000000000000    0.0000000000000000 Li
   0.7500000000000000    0.2500000000000000    0.5000000000000000 Hg
   0.2500000000000000    0.7500000000000000    0.5000000000000000 Hg
   0.5000000000000000    0.5000000000000000    0.0000000000000000 Hg
