Li1 Hg3
1.0
      3.0943407552       0.0000000000      -2.5143913104
     -0.7009322790       3.0139075383      -2.5143913104
      0.0000000000       0.0000000000       3.9871178025
Li Hg
1 3
direct
   0.0000000000000000    0.0000000000000000    0.0000000000000000 Li
   0.7500000000000000    0.2500000000000000    0.5000000000000000 Hg
   0.2500000000000000    0.7500000000000000    0.5000000000000000 Hg
   0.5000000000000000    0.5000000000000000    0.0000000000000000 Hg
