Li1 Hg3
1.0
      3.3006301389       0.0000000000      -2.6820173977
     -0.7476610976       3.2148347075      -2.6820173977
      0.0000000000       0.0000000000       4.2529256560
Li Hg
1 3
direct
   0.0000000000000000    0.0000000000000000    0.0000000000000000 Li
   0.7500000000000000    0.2500000000000000    0.5000000000000000 Hg
   0.2500000000000000    0.7500000000000000    0.5000000000000000 Hg
   0.5000000000000000    0.5000000000000000    0.0000000000000000 Hg
