Li1 In3
1.0
      3.8949474947       0.0000000000      -3.5928762537
     -0.7473400121       3.8225775196      -3.5928762537
      0.0000000000       0.0000000000       5.2989976185
Li In
1 3
direct
   0.0000000000000000    0.0000000000000000    0.0000000000000000 Li
   0.7499980000000001    0.2499990000000000    0.4999990000000000 In
   0.2499990000000000    0.7499980000000001    0.4999990000000000 In
   0.5000010000000000    0.5000010000000000    0.0000000000000000 In
