Li1 Au3
1.0
      3.4644728522       0.0000000000      -3.2905549148
     -0.6387166777       3.4050863644      -3.2905549148
      0.0000000000       0.0000000000       4.7781088090
Li Au
1 3
direct
   0.0000000000000000    0.0000000000000000    0.0000000000000000 Li
   0.7500010000000000    0.2500010000000000    0.5000000000000000 Au
   0.2500010000000000    0.7500010000000000    0.5000000000000000 Au
   0.5000000000000000    0.5000000000000000    0.0000000000000000 Au
