Li1 Au3
1.0
      2.7351101465       0.0000000000      -2.5978065117
     -0.5042500087       2.6882260772      -2.5978065117
      0.0000000000       0.0000000000       3.7721911650
Li Au
1 3
direct
   0.0000000000000000    0.0000000000000000    0.0000000000000000 Li
   0.7500010000000000    0.2500010000000000    0.5000000000000000 Au
   0.2500010000000000    0.7500010000000000    0.5000000000000000 Au
   0.5000000000000000    0.5000000000000000    0.0000000000000000 Au
