Hf2 Zn1
1.0
      2.4865407581       0.0000000000      -0.6865037539
     -0.1933202642       2.4790143641      -0.6865037539
      0.0000000000       0.0000000000       4.8375467280
Hf Zn
2 1
direct
   0.6587134800000000    0.6587134800000000    0.3172715200000000 Hf
   0.3412865200000000    0.3412865200000000    0.6827284800000000 Hf
   0.0000000000000000    0.0000000000000000    0.0000000000000000 Zn
