Hf2 Zn1
1.0
      2.9527671503       0.0000000000      -0.8152232078
     -0.2295678137       2.9438295574      -0.8152232078
      0.0000000000       0.0000000000       5.7445867395
Hf Zn
2 1
direct
   0.6587134800000000    0.6587134800000000    0.3172715200000000 Hf
   0.3412865200000000    0.3412865200000000    0.6827284800000000 Hf
   0.0000000000000000    0.0000000000000000    0.0000000000000000 Zn
