Li1 Y3
1.0
      3.9357656000       0.0000000000       0.0000000000
     -0.0000000000       3.9357656000       0.0000000000
      0.0000000000       0.0000000000       3.9357656000
Li Y
1 3
direct
   0.0000000000000000    0.0000000000000000    0.0000000000000000 Li
   0.5000000000000000    0.5000000000000000    0.0000000000000000 Y
   0.5000000000000000    0.0000000000000000    0.5000000000000000 Y
   0.0000000000000000    0.5000000000000000    0.5000000000000000 Y
