Mn2 Pd6
1.0
      4.9843276920       0.0000000000       0.0000000000
     -2.4921639040       4.3165543686       0.0000000000
      0.0000000000       0.0000000000       4.0536886860
Mn Pd
2 6
direct
   0.6666666666666666    0.3333333333333333    0.2500000000000000 Mn
   0.3333333333333333    0.6666666666666666    0.7500000000000000 Mn
   0.6650564500000000    0.8325282300000000    0.2500000000000000 Pd
   0.1674717700000000    0.3349435500000000    0.2500000000000000 Pd
   0.1674717700000000    0.8325282300000000    0.2500000000000000 Pd
   0.8325282300000000    0.6650564500000000    0.7500000000000000 Pd
   0.3349435500000000    0.1674717700000000    0.7500000000000000 Pd
   0.8325282300000000    0.1674717700000000    0.7500000000000000 Pd
