K3 In1
1.0
      5.1935021460       0.0000000000       0.0000000000
     -0.0000000000       5.1935021460       0.0000000000
      0.0000000000       0.0000000000       5.1935021460
K In
3 1
direct
   0.0000000000000000    0.5000000000000000    0.5000000000000000 K
   0.5000000000000000    0.0000000000000000    0.5000000000000000 K
   0.5000000000000000    0.5000000000000000    0.0000000000000000 K
   0.0000000000000000    0.0000000000000000    0.0000000000000000 In
