K3 In1
1.0
      4.3279184550       0.0000000000       0.0000000000
     -0.0000000000       4.3279184550       0.0000000000
      0.0000000000       0.0000000000       4.3279184550
K In
3 1
direct
   0.0000000000000000    0.5000000000000000    0.5000000000000000 K
   0.5000000000000000    0.0000000000000000    0.5000000000000000 K
   0.5000000000000000    0.5000000000000000    0.0000000000000000 K
   0.0000000000000000    0.0000000000000000    0.0000000000000000 In
