Li3 Pu1
1.0
      3.2968300944       0.0000000000       1.9034257425
      1.0989433648       3.1082812216       1.9034257425
      0.0000000000       0.0000000000       3.8068514850
Li Pu
3 1
direct
   0.2500000000000000    0.2500000000000000    0.2500000000000000 Li
   0.7500000000000000    0.7500000000000000    0.7500000000000000 Li
   0.5000000000000000    0.5000000000000000    0.5000000000000000 Li
   0.0000000000000000    0.0000000000000000    0.0000000000000000 Pu
