Li3 Pu1
1.0
      3.7364074404       0.0000000000       2.1572158415
      1.2454691468       3.5227187178       2.1572158415
      0.0000000000       0.0000000000       4.3144316830
Li Pu
3 1
direct
   0.2500000000000000    0.2500000000000000    0.2500000000000000 Li
   0.7500000000000000    0.7500000000000000    0.7500000000000000 Li
   0.5000000000000000    0.5000000000000000    0.5000000000000000 Li
   0.0000000000000000    0.0000000000000000    0.0000000000000000 Pu
