Li3 Pu1
1.0
      3.5166187674       0.0000000000       2.0303207920
      1.1722062558       3.3154999697       2.0303207920
      0.0000000000       0.0000000000       4.0606415840
Li Pu
3 1
direct
   0.2500000000000000    0.2500000000000000    0.2500000000000000 Li
   0.7500000000000000    0.7500000000000000    0.7500000000000000 Li
   0.5000000000000000    0.5000000000000000    0.5000000000000000 Li
   0.0000000000000000    0.0000000000000000    0.0000000000000000 Pu
