Li3 Pu1
1.0
      3.9561961133       0.0000000000       2.2841108910
      1.3187320378       3.7299374659       2.2841108910
      0.0000000000       0.0000000000       4.5682217820
Li Pu
3 1
direct
   0.2500000000000000    0.2500000000000000    0.2500000000000000 Li
   0.7500000000000000    0.7500000000000000    0.7500000000000000 Li
   0.5000000000000000    0.5000000000000000    0.5000000000000000 Li
   0.0000000000000000    0.0000000000000000    0.0000000000000000 Pu
