Li1 Br1
1.0
      2.6676808175       0.0000000000       1.5401871097
      0.8892274872       2.5151141933       1.5401871120
      0.0000000000       0.0000000000       3.0803725760
Li Br
1 1
direct
   0.0000000000000000    0.0000000000000000    0.0000000000000000 Li
   0.5000000000000000    0.5000000000000000    0.5000000000000000 Br
