Li1 Br1
1.0
      3.1678709708       0.0000000000       1.8289721928
      1.0559576411       2.9866981045       1.8289721955
      0.0000000000       0.0000000000       3.6579424340
Li Br
1 1
direct
   0.0000000000000000    0.0000000000000000    0.0000000000000000 Li
   0.5000000000000000    0.5000000000000000    0.5000000000000000 Br
