Mn1 N1
1.0
      1.9002158586       0.0000000000       1.0970901375
      0.6334052862       1.7915406925       1.0970901375
      0.0000000000       0.0000000000       2.1941802750
Mn N
1 1
direct
   0.0000000000000000    0.0000000000000000    0.0000000000000000 Mn
   0.5000000000000000    0.5000000000000000    0.5000000000000000 N
