Mn1 N1
1.0
      2.1535779731       0.0000000000       1.2433688225
      0.7178593244       2.0304127848       1.2433688225
      0.0000000000       0.0000000000       2.4867376450
Mn N
1 1
direct
   0.0000000000000000    0.0000000000000000    0.0000000000000000 Mn
   0.5000000000000000    0.5000000000000000    0.5000000000000000 N
