Mn1 N1
1.0
      2.0268969159       0.0000000000       1.1702294800
      0.6756323053       1.9109767386       1.1702294800
      0.0000000000       0.0000000000       2.3404589600
Mn N
1 1
direct
   0.0000000000000000    0.0000000000000000    0.0000000000000000 Mn
   0.5000000000000000    0.5000000000000000    0.5000000000000000 N
