Mn1 N1
1.0
      2.2802590304       0.0000000000       1.3165081650
      0.7600863435       2.1498488310       1.3165081650
      0.0000000000       0.0000000000       2.6330163300
Mn N
1 1
direct
   0.0000000000000000    0.0000000000000000    0.0000000000000000 Mn
   0.5000000000000000    0.5000000000000000    0.5000000000000000 N
