Mn1 N1
1.0
      2.4069400876       0.0000000000       1.3896475075
      0.8023133625       2.2692848771       1.3896475075
      0.0000000000       0.0000000000       2.7792950150
Mn N
1 1
direct
   0.0000000000000000    0.0000000000000000    0.0000000000000000 Mn
   0.5000000000000000    0.5000000000000000    0.5000000000000000 N
