Li4 Mg12
1.0
      5.5738960000       0.0000000000       0.0000000000
     -0.0000000000       5.5738968000       0.0000000000
      0.0000000000       0.0000000000       5.5738968000
Li Mg
4 12
direct
   0.5000000000000000    0.0000000000000000    0.0000000000000000 Li
   0.5000000000000000    0.5000000000000000    0.5000000000000000 Li
   0.0000000000000000    0.0000000000000000    0.5000000000000000 Li
   0.0000000000000000    0.5000000000000000    0.0000000000000000 Li
   0.0000000000000000    0.0000000000000000    0.0000000000000000 Mg
   0.2500000000000000    0.2500000000000000    0.2500000000000000 Mg
   0.2500000000000000    0.2500000000000000    0.7500000000000000 Mg
   0.0000000000000000    0.5000000000000000    0.5000000000000000 Mg
   0.2500000000000000    0.7500000000000000    0.7500000000000000 Mg
   0.2500000000000000    0.7500000000000000    0.2500000000000000 Mg
   0.5000000000000000    0.0000000000000000    0.5000000000000000 Mg
   0.7500000000000000    0.2500000000000000    0.7500000000000000 Mg
   0.7500000000000000    0.2500000000000000    0.2500000000000000 Mg
   0.5000000000000000    0.5000000000000000    0.0000000000000000 Mg
   0.7500000000000000    0.7500000000000000    0.2500000000000000 Mg
   0.7500000000000000    0.7500000000000000    0.7500000000000000 Mg
