Mn2 Pd6
1.0
      3.4289562764       0.0000000000      -0.8356339031
     -0.2034631025       3.4229050058      -0.8356140167
      0.0000000000       0.0000000000       7.4332293300
Mn Pd
2 6
direct
   0.1237468300000000    0.1237442900000000    0.2477588600000000 Mn
   0.8762556500000001    0.8762530700000000    0.7522440500000001 Mn
   0.3746291500000000    0.3746307500000000    0.7494186300000000 Pd
   0.6253750400000000    0.6253703800000000    0.2505811400000000 Pd
   0.4999639600000000    0.9999772800000000    0.9999941300000000 Pd
   0.9999694900000000    0.4999637700000000    0.9999951300000000 Pd
   0.7500979200000000    0.2499591500000000    0.5000035500000000 Pd
   0.2499609400000000    0.7500993000000000    0.5000045200000000 Pd
