Li1 Ho3
1.0
      3.7341017446       0.0000000000      -3.5930069214
     -0.6761804989       3.6723692314      -3.5930069214
      0.0000000000       0.0000000000       5.1820087395
Li Ho
1 3
direct
   0.0000000000000000    0.0000000000000000    0.0000000000000000 Li
   0.7500000000000000    0.2500000000000000    0.5000000000000000 Ho
   0.2500000000000000    0.7500000000000000    0.5000000000000000 Ho
   0.5000000000000000    0.5000000000000000    0.0000000000000000 Ho
