Li1 Ho3
1.0
      3.2947956570       0.0000000000      -3.1703002248
     -0.5966298519       3.2403257924      -3.1703002248
      0.0000000000       0.0000000000       4.5723606525
Li Ho
1 3
direct
   0.0000000000000000    0.0000000000000000    0.0000000000000000 Li
   0.7500000000000000    0.2500000000000000    0.5000000000000000 Ho
   0.2500000000000000    0.7500000000000000    0.5000000000000000 Ho
   0.5000000000000000    0.5000000000000000    0.0000000000000000 Ho
