Cu1 Pd1
1.0
      2.4030098460       0.0000000000       0.0000000000
     -0.8509165004       2.2473089305       0.0000000000
      0.0000000000       0.0000000000       3.7691991000
Cu Pd
1 1
direct
   0.0000000000000000    0.0000000000000000    0.0000000000000000 Cu
   0.5000000000000000    0.5000000000000000    0.5000000000000000 Pd
