Cu1 Pd1
1.0
      2.5365103930       0.0000000000       0.0000000000
     -0.8981896393       2.3721594267       0.0000000000
      0.0000000000       0.0000000000       3.9785990500
Cu Pd
1 1
direct
   0.0000000000000000    0.0000000000000000    0.0000000000000000 Cu
   0.5000000000000000    0.5000000000000000    0.5000000000000000 Pd
