Cu1 Pd1
1.0
      2.2695092990       0.0000000000       0.0000000000
     -0.8036433615       2.1224584344       0.0000000000
      0.0000000000       0.0000000000       3.5597991500
Cu Pd
1 1
direct
   0.0000000000000000    0.0000000000000000    0.0000000000000000 Cu
   0.5000000000000000    0.5000000000000000    0.5000000000000000 Pd
