Cu1 Pd1
1.0
      2.0025082050       0.0000000000       0.0000000000
     -0.7090970837       1.8727574421       0.0000000000
      0.0000000000       0.0000000000       3.1409992500
Cu Pd
1 1
direct
   0.0000000000000000    0.0000000000000000    0.0000000000000000 Cu
   0.5000000000000000    0.5000000000000000    0.5000000000000000 Pd
