Cu1 Pd1
1.0
      2.1360087520       0.0000000000       0.0000000000
     -0.7563702226       1.9976079383       0.0000000000
      0.0000000000       0.0000000000       3.3503992000
Cu Pd
1 1
direct
   0.0000000000000000    0.0000000000000000    0.0000000000000000 Cu
   0.5000000000000000    0.5000000000000000    0.5000000000000000 Pd
