Li1 Hg3
1.0
      3.2406291464       0.0000000000       1.8709781100
      1.0802097155       3.0552944596       1.8709781100
      0.0000000000       0.0000000000       3.7419562200
Li Hg
1 3
direct
   0.7500000000000000    0.7500000000000000    0.7500000000000000 Li
   0.0000000000000000    0.0000000000000000    0.0000000000000000 Hg
   0.5000000000000000    0.5000000000000000    0.5000000000000000 Hg
   0.2500000000000000    0.2500000000000000    0.2500000000000000 Hg
