Li1 Hg3
1.0
      3.4566710895       0.0000000000       1.9957099840
      1.1522236965       3.2589807569       1.9957099840
      0.0000000000       0.0000000000       3.9914199680
Li Hg
1 3
direct
   0.7500000000000000    0.7500000000000000    0.7500000000000000 Li
   0.0000000000000000    0.0000000000000000    0.0000000000000000 Hg
   0.5000000000000000    0.5000000000000000    0.5000000000000000 Hg
   0.2500000000000000    0.2500000000000000    0.2500000000000000 Hg
