Li1 Hg3
1.0
      3.8887549756       0.0000000000       2.2451737320
      1.2962516585       3.6663533515       2.2451737320
      0.0000000000       0.0000000000       4.4903474640
Li Hg
1 3
direct
   0.7500000000000000    0.7500000000000000    0.7500000000000000 Li
   0.0000000000000000    0.0000000000000000    0.0000000000000000 Hg
   0.5000000000000000    0.5000000000000000    0.5000000000000000 Hg
   0.2500000000000000    0.2500000000000000    0.2500000000000000 Hg
