Mn1 O2
1.0
      2.4280954916       0.0000000000       0.0002776094
     -1.2140286567       2.1027940415      -0.0002339442
      0.0000000000       0.0000000000       3.9111679510
Mn O
1 2
direct
   0.9999600000000000    0.9999982800000000    0.9999960900000000 Mn
   0.6666666666666666    0.3333333333333333    0.7937035200000000 O
   0.3332729100000000    0.6666666666666666    0.2063013900000000 O
