Zr2 Cu4
1.0
      4.5910156855       0.0000000000       0.0000000000
     -2.4382344894       3.8900433930       0.0000000000
      0.0000000000       0.0000000000       4.3771393830
Zr Cu
2 4
direct
   0.2339649800000000    0.2339649800000000    0.7500000000000000 Zr
   0.7660350200000000    0.7660350200000000    0.2500000000000000 Zr
   0.5339631800000000    0.8957149000000000    0.7500000000000000 Cu
   0.8957149000000000    0.5339631800000000    0.7500000000000000 Cu
   0.1042851000000000    0.4660368200000000    0.2500000000000000 Cu
   0.4660368200000000    0.1042851000000000    0.2500000000000000 Cu
