Mn2 O2
1.0
      3.0784139910       0.0000000000       0.0000000000
     -1.5392074488       2.6650489118       0.0000000000
      0.0000000000       0.0000000000       4.8124927440
Mn O
2 2
direct
   0.6665224199999999    0.3330448400000000    0.4986979000000000 Mn
   0.3334775800000000    0.6669551600000000    0.9986979000000000 Mn
   0.6668218700000000    0.3336437300000000    0.8877321000000000 O
   0.3331781300000000    0.6663562700000000    0.3877321000000000 O
