Cu1 Cl4
1.0
      3.8107829347       0.0000000000      -3.7183195809
     -0.6767931414       3.7502023437      -3.7183195809
      0.0000000000       0.0000000000       5.3242808980
Cu Cl
1 4
direct
   0.0000000000000000    0.0000000000000000    0.0000000000000000 Cu
   0.1168270000000000    0.1168270000000000    0.4956450000000000 Cl
   0.6211820000000000    0.6211820000000000    0.5043550000000000 Cl
   0.8831730000000000    0.3788180000000000    0.0000000000000000 Cl
   0.3788180000000000    0.8831730000000000    0.0000000000000000 Cl
