Cu1 Cl4
1.0
      3.3624555306       0.0000000000      -3.2808702184
     -0.5971704189       3.3090020680      -3.2808702184
      0.0000000000       0.0000000000       4.6978949100
Cu Cl
1 4
direct
   0.0000000000000000    0.0000000000000000    0.0000000000000000 Cu
   0.1168270000000000    0.1168270000000000    0.4956450000000000 Cl
   0.6211820000000000    0.6211820000000000    0.5043550000000000 Cl
   0.8831730000000000    0.3788180000000000    0.0000000000000000 Cl
   0.3788180000000000    0.8831730000000000    0.0000000000000000 Cl
