Cu1 Cl4
1.0
      4.2591103387       0.0000000000      -4.1557689434
     -0.7564158639       4.1914026194      -4.1557689434
      0.0000000000       0.0000000000       5.9506668860
Cu Cl
1 4
direct
   0.0000000000000000    0.0000000000000000    0.0000000000000000 Cu
   0.1168270000000000    0.1168270000000000    0.4956450000000000 Cl
   0.6211820000000000    0.6211820000000000    0.5043550000000000 Cl
   0.8831730000000000    0.3788180000000000    0.0000000000000000 Cl
   0.3788180000000000    0.8831730000000000    0.0000000000000000 Cl
