Cu1 Cl4
1.0
      3.5866192326       0.0000000000      -3.4995948997
     -0.6369817801       3.5296022058      -3.4995948997
      0.0000000000       0.0000000000       5.0110879040
Cu Cl
1 4
direct
   0.0000000000000000    0.0000000000000000    0.0000000000000000 Cu
   0.1168270000000000    0.1168270000000000    0.4956450000000000 Cl
   0.6211820000000000    0.6211820000000000    0.5043550000000000 Cl
   0.8831730000000000    0.3788180000000000    0.0000000000000000 Cl
   0.3788180000000000    0.8831730000000000    0.0000000000000000 Cl
