Mn1 Ga1
1.0
      2.4154459740       0.0000000000       0.0000000000
     -0.0000000000       2.4154459740       0.0000000000
      0.0000000000       0.0000000000       3.3732539640
Mn Ga
1 1
direct
   0.5000000000000000    0.5000000000000000    0.5000000000000000 Mn
   0.0000000000000000    0.0000000000000000    0.0000000000000000 Ga
