Li5 B4
1.0
      3.5772806040       0.0000000000       0.3824284954
      0.3437243289       3.5607288728       0.3824284954
      0.0000000000       0.0000000000       3.5976638550
Li B
5 4
direct
   0.7119380000000000    0.2784580000000000    0.7119380000000000 Li
   0.7119380000000000    0.7119380000000000    0.2784580000000000 Li
   0.2784580000000000    0.7119380000000000    0.7119380000000000 Li
   0.7870130000000000    0.7870130000000000    0.7870130000000000 Li
   0.3098810000000000    0.3098810000000000    0.3098810000000000 Li
   0.2205930000000000    0.8119350000000000    0.2205930000000000 B
   0.2205930000000000    0.2205930000000000    0.8119350000000000 B
   0.8119350000000000    0.2205930000000000    0.2205930000000000 B
   0.0226510000000000    0.0226510000000000    0.0226510000000000 B
