K1 Pr3
1.0
      4.6051725000       0.0000000000       0.0000000000
     -0.0000000000       4.6051725000       0.0000000000
      0.0000000000       0.0000000000       4.6051725000
K Pr
1 3
direct
   0.0000000000000000    0.0000000000000000    0.0000000000000000 K
   0.0000000000000000    0.5000000000000000    0.5000000000000000 Pr
   0.5000000000000000    0.0000000000000000    0.5000000000000000 Pr
   0.5000000000000000    0.5000000000000000    0.0000000000000000 Pr
