K1 Pr3
1.0
      5.1469575000       0.0000000000       0.0000000000
     -0.0000000000       5.1469575000       0.0000000000
      0.0000000000       0.0000000000       5.1469575000
K Pr
1 3
direct
   0.0000000000000000    0.0000000000000000    0.0000000000000000 K
   0.0000000000000000    0.5000000000000000    0.5000000000000000 Pr
   0.5000000000000000    0.0000000000000000    0.5000000000000000 Pr
   0.5000000000000000    0.5000000000000000    0.0000000000000000 Pr
