Li1 Ga3
1.0
      3.4607864924       0.0000000000      -3.1828499175
     -0.6667329745       3.3959549889      -3.1828499175
      0.0000000000       0.0000000000       4.7018694945
Li Ga
1 3
direct
   0.0000000000000000    0.0000000000000000    0.0000000000000000 Li
   0.7500000000000000    0.2500000000000000    0.5000000000000000 Ga
   0.2500000000000000    0.7500000000000000    0.5000000000000000 Ga
   0.5000000000000000    0.5000000000000000    0.0000000000000000 Ga
