Li1 Ga3
1.0
      2.7321998624       0.0000000000      -2.5127762507
     -0.5263681378       2.6810170965      -2.5127762507
      0.0000000000       0.0000000000       3.7120022325
Li Ga
1 3
direct
   0.0000000000000000    0.0000000000000000    0.0000000000000000 Li
   0.7500000000000000    0.2500000000000000    0.5000000000000000 Ga
   0.2500000000000000    0.7500000000000000    0.5000000000000000 Ga
   0.5000000000000000    0.5000000000000000    0.0000000000000000 Ga
