Li1 Ga3
1.0
      2.9143465199       0.0000000000      -2.6802946674
     -0.5614593470       2.8597515696      -2.6802946674
      0.0000000000       0.0000000000       3.9594690480
Li Ga
1 3
direct
   0.0000000000000000    0.0000000000000000    0.0000000000000000 Li
   0.7500000000000000    0.2500000000000000    0.5000000000000000 Ga
   0.2500000000000000    0.7500000000000000    0.5000000000000000 Ga
   0.5000000000000000    0.5000000000000000    0.0000000000000000 Ga
