Cu1 O2
1.0
      5.0045242654       0.0000000000       2.8869884073
      4.5282378564       2.1308038581       0.4128154631
      0.0000000000       0.0000000000       3.2998038700
Cu O
1 2
direct
   0.5000000000000000    0.5000000000000000    0.5000000000000000 Cu
   0.1021200000000000    0.1021200000000000    0.8978800000000000 O
   0.8978800000000000    0.8978800000000000    0.1021200000000000 O
