Cu1 O2
1.0
      4.4157567048       0.0000000000       2.5473427123
      3.9955039909       1.8801210512       0.3642489380
      0.0000000000       0.0000000000       2.9115916500
Cu O
1 2
direct
   0.5000000000000000    0.5000000000000000    0.5000000000000000 Cu
   0.1021200000000000    0.1021200000000000    0.8978800000000000 O
   0.8978800000000000    0.8978800000000000    0.1021200000000000 O
