Cu1 O2
1.0
      5.2989080458       0.0000000000       3.0568112548
      4.7946047891       2.2561452615       0.4370987256
      0.0000000000       0.0000000000       3.4939099800
Cu O
1 2
direct
   0.5000000000000000    0.5000000000000000    0.5000000000000000 Cu
   0.1021200000000000    0.1021200000000000    0.8978800000000000 O
   0.8978800000000000    0.8978800000000000    0.1021200000000000 O
