Cu1 O2
1.0
      5.5932918261       0.0000000000       3.2266341023
      5.0609717218       2.3814866649       0.4613819881
      0.0000000000       0.0000000000       3.6880160900
Cu O
1 2
direct
   0.5000000000000000    0.5000000000000000    0.5000000000000000 Cu
   0.1021200000000000    0.1021200000000000    0.8978800000000000 O
   0.8978800000000000    0.8978800000000000    0.1021200000000000 O
