Cu1 O2
1.0
      4.7101404851       0.0000000000       2.7171655598
      4.2618709236       2.0054624546       0.3885322005
      0.0000000000       0.0000000000       3.1056977600
Cu O
1 2
direct
   0.5000000000000000    0.5000000000000000    0.5000000000000000 Cu
   0.1021200000000000    0.1021200000000000    0.8978800000000000 O
   0.8978800000000000    0.8978800000000000    0.1021200000000000 O
