Ba3 Li1
1.0
      5.1133805992       0.0000000000      -5.2145046658
     -0.8532381288       5.0416907727      -5.2145046658
      0.0000000000       0.0000000000       7.3032677660
Ba Li
3 1
direct
   0.7500000000000000    0.2500000000000000    0.5000000000000000 Ba
   0.2500000000000000    0.7500000000000000    0.5000000000000000 Ba
   0.5000000000000000    0.5000000000000000    0.0000000000000000 Ba
   0.0000000000000000    0.0000000000000000    0.0000000000000000 Li
