Ba3 Li1
1.0
      4.0368794204       0.0000000000      -4.1167142099
     -0.6736090491       3.9802821890      -4.1167142099
      0.0000000000       0.0000000000       5.7657377100
Ba Li
3 1
direct
   0.7500000000000000    0.2500000000000000    0.5000000000000000 Ba
   0.2500000000000000    0.7500000000000000    0.5000000000000000 Ba
   0.5000000000000000    0.5000000000000000    0.0000000000000000 Ba
   0.0000000000000000    0.0000000000000000    0.0000000000000000 Li
