Ba3 Li1
1.0
      4.3060047151       0.0000000000      -4.3911618239
     -0.7185163190       4.2456343349      -4.3911618239
      0.0000000000       0.0000000000       6.1501202240
Ba Li
3 1
direct
   0.7500000000000000    0.2500000000000000    0.5000000000000000 Ba
   0.2500000000000000    0.7500000000000000    0.5000000000000000 Ba
   0.5000000000000000    0.5000000000000000    0.0000000000000000 Ba
   0.0000000000000000    0.0000000000000000    0.0000000000000000 Li
