Cu5 Ge2
1.0
      3.3422224279       0.0000000000       4.9223310253
      1.5131870126       2.9800529899       4.9223310253
      0.0000000000       0.0000000000       5.9497729735
Cu Ge
5 2
direct
   0.7447730000000000    0.7447730000000000    0.7447730000000000 Cu
   0.2589000000000000    0.2589000000000000    0.2589000000000000 Cu
   0.8750640000000000    0.8750640000000000    0.8750640000000000 Cu
   0.1288550000000000    0.1288550000000000    0.1288550000000000 Cu
   0.6212890000000000    0.6212890000000000    0.6212890000000000 Cu
   0.0045200000000000    0.0045200000000000    0.0045200000000000 Ge
   0.4915980000000000    0.4915980000000000    0.4915980000000000 Ge
