Cu5 Ge2
1.0
      2.9490197894       0.0000000000       4.3432332576
      1.3351650111       2.6294585205       4.3432332576
      0.0000000000       0.0000000000       5.2497996825
Cu Ge
5 2
direct
   0.7447730000000000    0.7447730000000000    0.7447730000000000 Cu
   0.2589000000000000    0.2589000000000000    0.2589000000000000 Cu
   0.8750640000000000    0.8750640000000000    0.8750640000000000 Cu
   0.1288550000000000    0.1288550000000000    0.1288550000000000 Cu
   0.6212890000000000    0.6212890000000000    0.6212890000000000 Cu
   0.0045200000000000    0.0045200000000000    0.0045200000000000 Ge
   0.4915980000000000    0.4915980000000000    0.4915980000000000 Ge
