Cu5 Ge2
1.0
      3.7354250665       0.0000000000       5.5014287929
      1.6912090141       3.3306474593       5.5014287929
      0.0000000000       0.0000000000       6.6497462645
Cu Ge
5 2
direct
   0.7447730000000000    0.7447730000000000    0.7447730000000000 Cu
   0.2589000000000000    0.2589000000000000    0.2589000000000000 Cu
   0.8750640000000000    0.8750640000000000    0.8750640000000000 Cu
   0.1288550000000000    0.1288550000000000    0.1288550000000000 Cu
   0.6212890000000000    0.6212890000000000    0.6212890000000000 Cu
   0.0045200000000000    0.0045200000000000    0.0045200000000000 Ge
   0.4915980000000000    0.4915980000000000    0.4915980000000000 Ge
