Li1 Rh1
1.0
      2.1218405200       0.0000000000       0.0000000000
     -1.0609213934       1.8375667877       0.0000000000
      0.0000000000       0.0000000000       3.4612835280
Li Rh
1 1
direct
   0.3333333333333333    0.6666666666666666    0.5000000000000000 Li
   0.0000000000000000    0.0000000000000000    0.0000000000000000 Rh
