Li1 Rh1
1.0
      2.5196856175       0.0000000000       0.0000000000
     -1.2598441547       2.1821105604       0.0000000000
      0.0000000000       0.0000000000       4.1102741895
Li Rh
1 1
direct
   0.3333333333333333    0.6666666666666666    0.5000000000000000 Li
   0.0000000000000000    0.0000000000000000    0.0000000000000000 Rh
