K3 Dy1
1.0
      5.0558971664       0.0000000000       2.9190235900
      1.6852990555       4.7667455618       2.9190235900
      0.0000000000       0.0000000000       5.8380471800
K Dy
3 1
direct
   0.2500000000000000    0.2500000000000000    0.2500000000000000 K
   0.7500000000000000    0.7500000000000000    0.7500000000000000 K
   0.5000000000000000    0.5000000000000000    0.5000000000000000 K
   0.0000000000000000    0.0000000000000000    0.0000000000000000 Dy
