K3 Dy1
1.0
      5.6507085977       0.0000000000       3.2624381300
      1.8835695326       5.3275391573       3.2624381300
      0.0000000000       0.0000000000       6.5248762600
K Dy
3 1
direct
   0.2500000000000000    0.2500000000000000    0.2500000000000000 K
   0.7500000000000000    0.7500000000000000    0.7500000000000000 K
   0.5000000000000000    0.5000000000000000    0.5000000000000000 K
   0.0000000000000000    0.0000000000000000    0.0000000000000000 Dy
