K3 Dy1
1.0
      4.4610857350       0.0000000000       2.5756090500
      1.4870285783       4.2059519663       2.5756090500
      0.0000000000       0.0000000000       5.1512181000
K Dy
3 1
direct
   0.2500000000000000    0.2500000000000000    0.2500000000000000 K
   0.7500000000000000    0.7500000000000000    0.7500000000000000 K
   0.5000000000000000    0.5000000000000000    0.5000000000000000 K
   0.0000000000000000    0.0000000000000000    0.0000000000000000 Dy
