K3 Dy1
1.0
      5.3533028820       0.0000000000       3.0907308600
      1.7844342940       5.0471423595       3.0907308600
      0.0000000000       0.0000000000       6.1814617200
K Dy
3 1
direct
   0.2500000000000000    0.2500000000000000    0.2500000000000000 K
   0.7500000000000000    0.7500000000000000    0.7500000000000000 K
   0.5000000000000000    0.5000000000000000    0.5000000000000000 K
   0.0000000000000000    0.0000000000000000    0.0000000000000000 Dy
