K3 Dy1
1.0
      4.7584914507       0.0000000000       2.7473163200
      1.5861638169       4.4863487640       2.7473163200
      0.0000000000       0.0000000000       5.4946326400
K Dy
3 1
direct
   0.2500000000000000    0.2500000000000000    0.2500000000000000 K
   0.7500000000000000    0.7500000000000000    0.7500000000000000 K
   0.5000000000000000    0.5000000000000000    0.5000000000000000 K
   0.0000000000000000    0.0000000000000000    0.0000000000000000 Dy
