Cu1 Ni1
1.0
      2.1871092060       0.0000000000       0.0000000000
     -0.9599432676       1.9651864359       0.0000000000
      0.0000000000       0.0000000000       3.7198343880
Cu Ni
1 1
direct
   0.5000000000000000    0.5000000000000000    0.5000000000000000 Cu
   0.0000000000000000    0.0000000000000000    0.0000000000000000 Ni
