Cu1 Ni1
1.0
      2.3086152730       0.0000000000       0.0000000000
     -1.0132734491       2.0743634601       0.0000000000
      0.0000000000       0.0000000000       3.9264918540
Cu Ni
1 1
direct
   0.5000000000000000    0.5000000000000000    0.5000000000000000 Cu
   0.0000000000000000    0.0000000000000000    0.0000000000000000 Ni
