Cu1 Ni1
1.0
      1.8225910050       0.0000000000       0.0000000000
     -0.7999527230       1.6376553632       0.0000000000
      0.0000000000       0.0000000000       3.0998619900
Cu Ni
1 1
direct
   0.5000000000000000    0.5000000000000000    0.5000000000000000 Cu
   0.0000000000000000    0.0000000000000000    0.0000000000000000 Ni
