Cu1 Ni1
1.0
      2.0656031390       0.0000000000       0.0000000000
     -0.9066130861       1.8560094117       0.0000000000
      0.0000000000       0.0000000000       3.5131769220
Cu Ni
1 1
direct
   0.5000000000000000    0.5000000000000000    0.5000000000000000 Cu
   0.0000000000000000    0.0000000000000000    0.0000000000000000 Ni
