Cu1 Ni1
1.0
      1.9440970720       0.0000000000       0.0000000000
     -0.8532829045       1.7468323875       0.0000000000
      0.0000000000       0.0000000000       3.3065194560
Cu Ni
1 1
direct
   0.5000000000000000    0.5000000000000000    0.5000000000000000 Cu
   0.0000000000000000    0.0000000000000000    0.0000000000000000 Ni
