Cu1 Cl2
1.0
      3.0767817847       0.0000000000       5.3869160631
      1.4299860125       2.7242845217       5.3869160631
      0.0000000000       0.0000000000       6.2036643240
Cu Cl
1 2
direct
   0.0000000000000000    0.0000000000000000    0.0000000000000000 Cu
   0.7347320000000001    0.7347320000000001    0.7347320000000001 Cl
   0.2652680000000000    0.2652680000000000    0.2652680000000000 Cl
