Cu1 Cl2
1.0
      3.2477141061       0.0000000000       5.6861891777
      1.5094296798       2.8756336618       5.6861891777
      0.0000000000       0.0000000000       6.5483123420
Cu Cl
1 2
direct
   0.0000000000000000    0.0000000000000000    0.0000000000000000 Cu
   0.7347320000000001    0.7347320000000001    0.7347320000000001 Cl
   0.2652680000000000    0.2652680000000000    0.2652680000000000 Cl
