Cu1 Cl2
1.0
      2.5639848206       0.0000000000       4.4890967192
      1.1916550104       2.2702371014       4.4890967192
      0.0000000000       0.0000000000       5.1697202700
Cu Cl
1 2
direct
   0.0000000000000000    0.0000000000000000    0.0000000000000000 Cu
   0.7347320000000001    0.7347320000000001    0.7347320000000001 Cl
   0.2652680000000000    0.2652680000000000    0.2652680000000000 Cl
