Cu1 Cl2
1.0
      2.9058494634       0.0000000000       5.0876429485
      1.3505423451       2.5729353816       5.0876429485
      0.0000000000       0.0000000000       5.8590163060
Cu Cl
1 2
direct
   0.0000000000000000    0.0000000000000000    0.0000000000000000 Cu
   0.7347320000000001    0.7347320000000001    0.7347320000000001 Cl
   0.2652680000000000    0.2652680000000000    0.2652680000000000 Cl
