Cu1 Cl2
1.0
      2.7349171420       0.0000000000       4.7883698338
      1.2710986777       2.4215862415       4.7883698338
      0.0000000000       0.0000000000       5.5143682880
Cu Cl
1 2
direct
   0.0000000000000000    0.0000000000000000    0.0000000000000000 Cu
   0.7347320000000001    0.7347320000000001    0.7347320000000001 Cl
   0.2652680000000000    0.2652680000000000    0.2652680000000000 Cl
