U1 Cu5
1.0
      3.4489364295       0.0000000000       1.9912443760
      1.1496454765       3.2516884496       1.9912443760
      0.0000000000       0.0000000000       3.9824887520
U Cu
1 5
direct
   0.0000000000000000    0.0000000000000000    0.0000000000000000 U
   0.2500000000000000    0.2500000000000000    0.2500000000000000 Cu
   0.6236080000000001    0.6236080000000001    0.6236080000000001 Cu
   0.1291750000000000    0.6236080000000001    0.6236080000000001 Cu
   0.6236080000000001    0.1291750000000000    0.6236080000000001 Cu
   0.6236080000000001    0.6236080000000001    0.1291750000000000 Cu
