U1 Cu5
1.0
      4.0956120101       0.0000000000       2.3646026965
      1.3652040034       3.8613800339       2.3646026965
      0.0000000000       0.0000000000       4.7292053930
U Cu
1 5
direct
   0.0000000000000000    0.0000000000000000    0.0000000000000000 U
   0.2500000000000000    0.2500000000000000    0.2500000000000000 Cu
   0.6236080000000001    0.6236080000000001    0.6236080000000001 Cu
   0.1291750000000000    0.6236080000000001    0.6236080000000001 Cu
   0.6236080000000001    0.1291750000000000    0.6236080000000001 Cu
   0.6236080000000001    0.6236080000000001    0.1291750000000000 Cu
