U1 Cu5
1.0
      3.6644949564       0.0000000000       2.1156971495
      1.2214983188       3.4549189777       2.1156971495
      0.0000000000       0.0000000000       4.2313942990
U Cu
1 5
direct
   0.0000000000000000    0.0000000000000000    0.0000000000000000 U
   0.2500000000000000    0.2500000000000000    0.2500000000000000 Cu
   0.6236080000000001    0.6236080000000001    0.6236080000000001 Cu
   0.1291750000000000    0.6236080000000001    0.6236080000000001 Cu
   0.6236080000000001    0.1291750000000000    0.6236080000000001 Cu
   0.6236080000000001    0.6236080000000001    0.1291750000000000 Cu
