U1 Cu5
1.0
      3.8800534832       0.0000000000       2.2401499230
      1.2933511611       3.6581495058       2.2401499230
      0.0000000000       0.0000000000       4.4802998460
U Cu
1 5
direct
   0.0000000000000000    0.0000000000000000    0.0000000000000000 U
   0.2500000000000000    0.2500000000000000    0.2500000000000000 Cu
   0.6236080000000001    0.6236080000000001    0.6236080000000001 Cu
   0.1291750000000000    0.6236080000000001    0.6236080000000001 Cu
   0.6236080000000001    0.1291750000000000    0.6236080000000001 Cu
   0.6236080000000001    0.6236080000000001    0.1291750000000000 Cu
