U1 Cu5
1.0
      3.2333779027       0.0000000000       1.8667916025
      1.0777926342       3.0484579215       1.8667916025
      0.0000000000       0.0000000000       3.7335832050
U Cu
1 5
direct
   0.0000000000000000    0.0000000000000000    0.0000000000000000 U
   0.2500000000000000    0.2500000000000000    0.2500000000000000 Cu
   0.6236080000000001    0.6236080000000001    0.6236080000000001 Cu
   0.1291750000000000    0.6236080000000001    0.6236080000000001 Cu
   0.6236080000000001    0.1291750000000000    0.6236080000000001 Cu
   0.6236080000000001    0.6236080000000001    0.1291750000000000 Cu
