K1 Nd1
1.0
      3.1645976085       0.0000000000      -0.0000081811
     -1.5827042496       2.7402886283       0.0000152885
      0.0000000000       0.0000000000       6.1591340000
K Nd
1 1
direct
   0.6666666666666666    0.3333333333333333    0.7499980000000001 K
   0.3333333333333333    0.6666666666666666    0.2500000000000000 Nd
