K1 Nd1
1.0
      2.7922920075       0.0000000000      -0.0000072186
     -1.3965037496       2.4179017309       0.0000134899
      0.0000000000       0.0000000000       5.4345300000
K Nd
1 1
direct
   0.6666666666666666    0.3333333333333333    0.7499980000000001 K
   0.3333333333333333    0.6666666666666666    0.2500000000000000 Nd
