K1 Nd1
1.0
      3.5369032095       0.0000000000      -0.0000091435
     -1.7689047495       3.0626755257       0.0000170872
      0.0000000000       0.0000000000       6.8837380000
K Nd
1 1
direct
   0.6666666666666666    0.3333333333333333    0.7499980000000001 K
   0.3333333333333333    0.6666666666666666    0.2500000000000000 Nd
