K1 Nd1
1.0
      3.3507504090       0.0000000000      -0.0000086623
     -1.6758044996       2.9014820770       0.0000161879
      0.0000000000       0.0000000000       6.5214360000
K Nd
1 1
direct
   0.6666666666666666    0.3333333333333333    0.7499980000000001 K
   0.3333333333333333    0.6666666666666666    0.2500000000000000 Nd
