K1 Nd1
1.0
      2.9784448080       0.0000000000      -0.0000076998
     -1.4896039996       2.5790951796       0.0000143892
      0.0000000000       0.0000000000       5.7968320000
K Nd
1 1
direct
   0.6666666666666666    0.3333333333333333    0.7499980000000001 K
   0.3333333333333333    0.6666666666666666    0.2500000000000000 Nd
