Li1 Cu3
1.0
      2.9713968583       0.0000000000       1.7155367760
      0.9904656194       2.8014598241       1.7155367760
      0.0000000000       0.0000000000       3.4310735520
Li Cu
1 3
direct
   0.7499990000000000    0.7499990000000000    0.7499990000000000 Li
   0.0000000000000000    0.0000000000000000    0.0000000000000000 Cu
   0.5000000000000000    0.5000000000000000    0.5000000000000000 Cu
   0.2500010000000000    0.2500010000000000    0.2500010000000000 Cu
