Li1 Cu3
1.0
      3.1461849088       0.0000000000       1.8164507040
      1.0487283029       2.9662515785       1.8164507040
      0.0000000000       0.0000000000       3.6329014080
Li Cu
1 3
direct
   0.7499990000000000    0.7499990000000000    0.7499990000000000 Li
   0.0000000000000000    0.0000000000000000    0.0000000000000000 Cu
   0.5000000000000000    0.5000000000000000    0.5000000000000000 Cu
   0.2500010000000000    0.2500010000000000    0.2500010000000000 Cu
