Li1 Cu3
1.0
      2.7966088078       0.0000000000       1.6146228480
      0.9322029359       2.6366680698       1.6146228480
      0.0000000000       0.0000000000       3.2292456960
Li Cu
1 3
direct
   0.7499990000000000    0.7499990000000000    0.7499990000000000 Li
   0.0000000000000000    0.0000000000000000    0.0000000000000000 Cu
   0.5000000000000000    0.5000000000000000    0.5000000000000000 Cu
   0.2500010000000000    0.2500010000000000    0.2500010000000000 Cu
