Li1 Cu3
1.0
      2.6218207573       0.0000000000       1.5137089200
      0.8739402524       2.4718763154       1.5137089200
      0.0000000000       0.0000000000       3.0274178400
Li Cu
1 3
direct
   0.7499990000000000    0.7499990000000000    0.7499990000000000 Li
   0.0000000000000000    0.0000000000000000    0.0000000000000000 Cu
   0.5000000000000000    0.5000000000000000    0.5000000000000000 Cu
   0.2500010000000000    0.2500010000000000    0.2500010000000000 Cu
