Ta4 Mn8
1.0
      4.2089383785       0.0000000000       0.0000017131
     -2.1044394190       3.6450641085      -0.0000014339
      0.0000000000       0.0000000000       6.6887992515
Ta Mn
4 8
direct
   0.3333333333333333    0.6666666666666666    0.0602563900000000 Ta
   0.6666666666666666    0.3333333333333333    0.5602773800000000 Ta
   0.6666666666666666    0.3333333333333333    0.9397436100000000 Ta
   0.3333333333333333    0.6666666666666666    0.4397226200000000 Ta
   0.0000000000000000    0.0000000000000000    0.0000000000000000 Mn
   0.0000000000000000    0.0000000000000000    0.5000000000000000 Mn
   0.8300662700000000    0.6601344900000000    0.2499622300000000 Mn
   0.1699332700000000    0.8300667300000000    0.7500378500000000 Mn
   0.6601334900000000    0.8300662700000000    0.7500377700000000 Mn
   0.3398665100000000    0.1699337300000000    0.2499622300000000 Mn
   0.8300667300000000    0.1699332700000000    0.2499621500000000 Mn
   0.1699337300000000    0.3398655100000000    0.7500377700000000 Mn
