Li2 Mg2
1.0
      2.4419124400       0.0000000000       0.0000000000
     -0.0000000000       4.0205482240       0.0000000000
      0.0000000000       0.0000000000       4.3043878240
Li Mg
2 2
direct
   0.5000000000000000    0.7500000000000000    0.3343787300000000 Li
   0.5000000000000000    0.2500000000000000    0.6656212700000000 Li
   0.0000000000000000    0.7500000000000000    0.8287297700000000 Mg
   0.0000000000000000    0.2500000000000000    0.1712702300000000 Mg
