Mg1 S1
1.0
      2.5517781228       0.0000000000       1.4732700177
      0.8505927047       2.4058395464       1.4732700172
      0.0000000000       0.0000000000       2.9465392160
Mg S
1 1
direct
   0.0000000000000000    0.0000000000000000    0.0000000000000000 Mg
   0.5000000000000000    0.5000000000000000    0.5000000000000000 S
