Mg1 S1
1.0
      3.0302365208       0.0000000000       1.7495081460
      1.0100788369       2.8569344613       1.7495081454
      0.0000000000       0.0000000000       3.4990153190
Mg S
1 1
direct
   0.0000000000000000    0.0000000000000000    0.0000000000000000 Mg
   0.5000000000000000    0.5000000000000000    0.5000000000000000 S
