Mg1 S1
1.0
      2.7112642555       0.0000000000       1.5653493938
      0.9037547488       2.5562045180       1.5653493933
      0.0000000000       0.0000000000       3.1306979170
Mg S
1 1
direct
   0.0000000000000000    0.0000000000000000    0.0000000000000000 Mg
   0.5000000000000000    0.5000000000000000    0.5000000000000000 S
