Mg1 S1
1.0
      2.3922919901       0.0000000000       1.3811906416
      0.7974306607       2.2554745747       1.3811906411
      0.0000000000       0.0000000000       2.7623805150
Mg S
1 1
direct
   0.0000000000000000    0.0000000000000000    0.0000000000000000 Mg
   0.5000000000000000    0.5000000000000000    0.5000000000000000 S
