Mg1 S1
1.0
      2.8707503881       0.0000000000       1.6574287699
      0.9569167928       2.7065694897       1.6574287693
      0.0000000000       0.0000000000       3.3148566180
Mg S
1 1
direct
   0.0000000000000000    0.0000000000000000    0.0000000000000000 Mg
   0.5000000000000000    0.5000000000000000    0.5000000000000000 S
