Li1 Np3
1.0
      2.9104709807       0.0000000000      -1.6734090502
     -0.9741812203       2.7425922554      -1.6734090502
      0.0000000000       0.0000000000       3.3572517300
Li Np
1 3
direct
   0.0000000000000000    0.0000000000000000    0.0000000000000000 Li
   0.7499990000000000    0.2499990000000000    0.5000000000000000 Np
   0.2499990000000000    0.7499990000000000    0.5000000000000000 Np
   0.5000000000000000    0.5000000000000000    0.0000000000000000 Np
