K6 Co2
1.0
      6.8900745425       0.0000000000       0.0000000000
     -3.4450373139       5.9669795631       0.0000000000
      0.0000000000       0.0000000000       5.3550102000
K Co
6 2
direct
   0.1787400000000000    0.3574800000000000    0.2500000000000000 K
   0.6425200000000000    0.8212600000000000    0.2500000000000000 K
   0.1787400000000000    0.8212600000000000    0.2500000000000000 K
   0.8212600000000000    0.6425200000000000    0.7500000000000000 K
   0.3574800000000000    0.1787400000000000    0.7500000000000000 K
   0.8212600000000000    0.1787400000000000    0.7500000000000000 K
   0.3333333333333333    0.6666666666666666    0.7500000000000000 Co
   0.6666666666666666    0.3333333333333333    0.2500000000000000 Co
