Zn1 Pt3
1.0
      3.5086957110       0.0000000000       0.0000000000
     -0.0000000000       3.5086957110       0.0000000000
      0.0000000000       0.0000000000       3.5086957110
Zn Pt
1 3
direct
   0.0000000000000000    0.0000000000000000    0.0000000000000000 Zn
   0.5000000000000000    0.5000000000000000    0.0000000000000000 Pt
   0.5000000000000000    0.0000000000000000    0.5000000000000000 Pt
   0.0000000000000000    0.5000000000000000    0.5000000000000000 Pt
