Mg1 Br6
1.0
      8.2996600425       0.0000000000       0.0000000000
     -4.1498299638       6.3292587455       0.0000000000
      0.0000000000       0.0000000000      39.4166060775
Mg Br
1 6
direct
   0.0000000000000000    0.0000000000000000    0.0000000000000000 Mg
   0.0000000000000000    0.0000000000000000    0.7500019300000000 Br
   0.0000000000000000    0.0000000000000000    0.2499980700000000 Br
   0.7468571700000000    0.7572069400000000    0.0000000000000000 Br
   0.2531428300000000    0.2427930600000000    0.0000000000000000 Br
   0.9896502200000000    0.2427930600000000    0.0000000000000000 Br
   0.0103497800000000    0.7572069400000000    0.0000000000000000 Br
