Ca6 Mg6
1.0
      4.5498305360       0.0000000000       0.0000000000
     -0.0000000000       3.0884654640       0.0000000000
      0.0000000000       0.0000000000      13.7587633760
Ca Mg
6 6
direct
   0.0000000000000000    0.5000000000000000    0.1903951400000000 Ca
   0.5000000000000000    0.5000000000000000    0.3582380100000000 Ca
   0.5000000000000000    0.5000000000000000    0.0429592900000000 Ca
   0.0000000000000000    0.0000000000000000    0.6903951400000000 Ca
   0.5000000000000000    0.0000000000000000    0.8582380100000000 Ca
   0.5000000000000000    0.0000000000000000    0.5429592900000000 Ca
   0.0000000000000000    0.5000000000000000    0.5088577300000000 Mg
   0.0000000000000000    0.0000000000000000    0.3624703200000000 Mg
   0.5000000000000000    0.0000000000000000    0.2037455100000000 Mg
   0.0000000000000000    0.0000000000000000    0.0088577300000000 Mg
   0.0000000000000000    0.5000000000000000    0.8624703200000000 Mg
   0.5000000000000000    0.5000000000000000    0.7037455100000000 Mg
