Lu2 Zn4
1.0
      3.6076152600       0.0000000000       1.5587334742
      1.6354609948       4.5279980253       1.1689982781
      0.0000000000       0.0000000000       4.9541957730
Lu Zn
2 4
direct
   0.4727114300000000    0.2772885700000000    0.7772885700000000 Lu
   0.5272885700000000    0.7227114300000000    0.2227114300000000 Lu
   0.8339757900000000    0.1256065300000000    0.2064398900000000 Zn
   0.1660242100000000    0.8743934700000000    0.7935601100000000 Zn
   0.8339757900000000    0.7064398900000000    0.6256065300000000 Zn
   0.1660242100000000    0.2935601100000000    0.3743934700000000 Zn
