Mg5 Cu1
1.0
      4.2501118640       0.0000000000       0.0000000000
     -2.1250557926       3.6807049236       0.0000000000
      0.0000000000       0.0000000000       3.9058920000
Mg Cu
5 1
direct
   0.6666666666666666    0.3333333333333333    0.5000000000000000 Mg
   0.3165600000000000    0.0000000000000000    0.0000000000000000 Mg
   0.6834400000000000    0.6834400000000000    0.0000000000000000 Mg
   0.0000000000000000    0.3165600000000000    0.0000000000000000 Mg
   0.3333333333333333    0.6666666666666666    0.5000000000000000 Mg
   0.0000000000000000    0.0000000000000000    0.5000000000000000 Cu
