Mg1 Cl2
1.0
      3.1467864000       0.0000000000       0.0000000000
     -0.0000000000       3.1467864000       0.0000000000
      0.0000000000       0.0000000000       4.5314680000
Mg Cl
1 2
direct
   0.5000000000000000    0.5000000000000000    0.0000000000000000 Mg
   0.0000000000000000    0.5000000000000000    0.2349740000000000 Cl
   0.5000000000000000    0.0000000000000000    0.7650260000000000 Cl
