Zr2 Cu2
1.0
      3.4918605285       0.0000000000       0.0000000000
     -0.0000000000       2.6499258531       0.7785648951
      0.0000000000       0.0000000000       4.6188858815
Zr Cu
2 2
direct
   0.7500000000000000    0.6483004400000000    0.1992560200000000 Zr
   0.2500000000000000    0.3516995600000000    0.8007439800000000 Zr
   0.7500000000000000    0.9310268300000000    0.6414329700000000 Cu
   0.2500000000000000    0.0689731700000000    0.3585670300000000 Cu
