Zr2 Cu2
1.0
      3.6972640890       0.0000000000       0.0000000000
     -0.0000000000       2.8058038444       0.8243628301
      0.0000000000       0.0000000000       4.8905850510
Zr Cu
2 2
direct
   0.7500000000000000    0.6483004400000000    0.1992560200000000 Zr
   0.2500000000000000    0.3516995600000000    0.8007439800000000 Zr
   0.7500000000000000    0.9310268300000000    0.6414329700000000 Cu
   0.2500000000000000    0.0689731700000000    0.3585670300000000 Cu
