Mn2 B8
1.0
      2.3499344880       0.0000000000       0.0000000000
      0.0000000077       3.6742743920      -0.0000056728
      0.0000000000       0.0000000000       4.2653888720
Mn B
2 8
direct
   0.5000000000000000    0.5000000000000000    0.5000000000000000 Mn
   0.0000000000000000    0.0000000000000000    0.0000000000000000 Mn
   0.5000000000000000    0.6648415300000000    0.8698681600000000 B
   0.5000000000000000    0.3351584700000000    0.1301318400000000 B
   0.0000000000000000    0.1648429300000000    0.6301322800000000 B
   0.0000000000000000    0.8351570699999999    0.3698677200000000 B
   0.5000000000000000    0.7363358500000000    0.1844220200000000 B
   0.5000000000000000    0.2636641500000000    0.8155779800000000 B
   0.0000000000000000    0.2363379200000000    0.3155773100000000 B
   0.0000000000000000    0.7636620800000000    0.6844226900000000 B
