Tb2 Zn4
1.0
      3.2715163855       0.0000000000       1.4134975968
      1.5477793297       4.1182257391       0.9103739367
      0.0000000000       0.0000000000       4.4926818240
Tb Zn
2 4
direct
   0.5291999300000000    0.7208000700000000    0.2208000700000000 Tb
   0.4708000700000000    0.2791999300000000    0.7791999300000000 Tb
   0.8341079600000000    0.7114642000000000    0.6203238900000000 Zn
   0.1658920400000000    0.2885358000000000    0.3796761100000000 Zn
   0.8341079600000000    0.1203238900000000    0.2114642000000000 Zn
   0.1658920400000000    0.8796761100000000    0.7885358000000000 Zn
