Tb2 Zn4
1.0
      3.8849257078       0.0000000000       1.6785283962
      1.8379879541       4.8903930652       1.0810690498
      0.0000000000       0.0000000000       5.3350596660
Tb Zn
2 4
direct
   0.5291999300000000    0.7208000700000000    0.2208000700000000 Tb
   0.4708000700000000    0.2791999300000000    0.7791999300000000 Tb
   0.8341079600000000    0.7114642000000000    0.6203238900000000 Zn
   0.1658920400000000    0.2885358000000000    0.3796761100000000 Zn
   0.8341079600000000    0.1203238900000000    0.2114642000000000 Zn
   0.1658920400000000    0.8796761100000000    0.7885358000000000 Zn
