Li1 O2
1.0
      2.5916802136       0.0000000000       2.2196080080
      1.0214231294       2.3819112326       2.2196080080
      0.0000000000       0.0000000000       3.4122525570
Li O
1 2
direct
   0.5000000000000000    0.5000000000000000    0.5000000000000000 Li
   0.2765540000000000    0.2765540000000000    0.2765540000000000 O
   0.7234460000000000    0.7234460000000000    0.7234460000000000 O
