Li1 O2
1.0
      2.7356624477       0.0000000000       2.3429195640
      1.0781688588       2.5142396344       2.3429195640
      0.0000000000       0.0000000000       3.6018221435
Li O
1 2
direct
   0.5000000000000000    0.5000000000000000    0.5000000000000000 Li
   0.2765540000000000    0.2765540000000000    0.2765540000000000 O
   0.7234460000000000    0.7234460000000000    0.7234460000000000 O
