Li1 Hg3
1.0
      3.9845659680       0.0000000000       0.0000000000
     -0.0000000000       3.9845659680       0.0000000000
      0.0000000000       0.0000000000       3.9845659680
Li Hg
1 3
direct
   0.0000000000000000    0.0000000000000000    0.0000000000000000 Li
   0.0000000000000000    0.4999990000000000    0.4999990000000000 Hg
   0.4999990000000000    0.0000000000000000    0.4999990000000000 Hg
   0.4999990000000000    0.4999990000000000    0.0000000000000000 Hg
