K1 Eu3
1.0
      5.0022840000       0.0000000000       0.0000000000
     -0.0000000000       5.0022840000       0.0000000000
      0.0000000000       0.0000000000       5.0022840000
K Eu
1 3
direct
   0.0000000000000000    0.0000000000000000    0.0000000000000000 K
   0.0000000000000000    0.5000000000000000    0.5000000000000000 Eu
   0.5000000000000000    0.0000000000000000    0.5000000000000000 Eu
   0.5000000000000000    0.5000000000000000    0.0000000000000000 Eu
