K1 Eu3
1.0
      4.4137800000       0.0000000000       0.0000000000
     -0.0000000000       4.4137800000       0.0000000000
      0.0000000000       0.0000000000       4.4137800000
K Eu
1 3
direct
   0.0000000000000000    0.0000000000000000    0.0000000000000000 K
   0.0000000000000000    0.5000000000000000    0.5000000000000000 Eu
   0.5000000000000000    0.0000000000000000    0.5000000000000000 Eu
   0.5000000000000000    0.5000000000000000    0.0000000000000000 Eu
