Li3 Cd1
1.0
      3.8467817368       0.0000000000       2.2209404713
      1.2822605789       3.6267806024       2.2209404713
      0.0000000000       0.0000000000       4.4418809425
Li Cd
3 1
direct
   0.0000000000000000    0.0000000000000000    0.0000000000000000 Li
   0.5000000000000000    0.5000000000000000    0.5000000000000000 Li
   0.2500010000000000    0.2500010000000000    0.2500010000000000 Li
   0.7499990000000000    0.7499990000000000    0.7499990000000000 Cd
