Li3 Cd1
1.0
      3.0369329501       0.0000000000       1.7533740563
      1.0123109834       2.8632478440       1.7533740563
      0.0000000000       0.0000000000       3.5067481125
Li Cd
3 1
direct
   0.0000000000000000    0.0000000000000000    0.0000000000000000 Li
   0.5000000000000000    0.5000000000000000    0.5000000000000000 Li
   0.2500010000000000    0.2500010000000000    0.2500010000000000 Li
   0.7499990000000000    0.7499990000000000    0.7499990000000000 Cd
