Mn3 Sb1
1.0
      3.3003320076       0.0000000000       1.9054475730
      1.1001106692       3.1115828570       1.9054475730
      0.0000000000       0.0000000000       3.8108951460
Mn Sb
3 1
direct
   0.7500000000000000    0.7500000000000000    0.7500000000000000 Mn
   0.2500000000000000    0.2500000000000000    0.2500000000000000 Mn
   0.0000000000000000    0.0000000000000000    0.0000000000000000 Mn
   0.5000000000000000    0.5000000000000000    0.5000000000000000 Sb
