Mn3 Sb1
1.0
      2.9336284512       0.0000000000       1.6937311760
      0.9778761504       2.7658514284       1.6937311760
      0.0000000000       0.0000000000       3.3874623520
Mn Sb
3 1
direct
   0.7500000000000000    0.7500000000000000    0.7500000000000000 Mn
   0.2500000000000000    0.2500000000000000    0.2500000000000000 Mn
   0.0000000000000000    0.0000000000000000    0.0000000000000000 Mn
   0.5000000000000000    0.5000000000000000    0.5000000000000000 Sb
