Mn3 Sb1
1.0
      3.4836837858       0.0000000000       2.0113057715
      1.1612279286       3.2844485713       2.0113057715
      0.0000000000       0.0000000000       4.0226115430
Mn Sb
3 1
direct
   0.7500000000000000    0.7500000000000000    0.7500000000000000 Mn
   0.2500000000000000    0.2500000000000000    0.2500000000000000 Mn
   0.0000000000000000    0.0000000000000000    0.0000000000000000 Mn
   0.5000000000000000    0.5000000000000000    0.5000000000000000 Sb
