Mn3 Sb1
1.0
      2.7502766730       0.0000000000       1.5878729775
      0.9167588910       2.5929857142       1.5878729775
      0.0000000000       0.0000000000       3.1757459550
Mn Sb
3 1
direct
   0.7500000000000000    0.7500000000000000    0.7500000000000000 Mn
   0.2500000000000000    0.2500000000000000    0.2500000000000000 Mn
   0.0000000000000000    0.0000000000000000    0.0000000000000000 Mn
   0.5000000000000000    0.5000000000000000    0.5000000000000000 Sb
