Mn3 Sb1
1.0
      3.1169802294       0.0000000000       1.7995893745
      1.0389934098       2.9387171427       1.7995893745
      0.0000000000       0.0000000000       3.5991787490
Mn Sb
3 1
direct
   0.7500000000000000    0.7500000000000000    0.7500000000000000 Mn
   0.2500000000000000    0.2500000000000000    0.2500000000000000 Mn
   0.0000000000000000    0.0000000000000000    0.0000000000000000 Mn
   0.5000000000000000    0.5000000000000000    0.5000000000000000 Sb
