Li6 Tb2
1.0
      4.9345852800       0.0000000000       0.0000000000
     -2.4672919188       4.2734766260       0.0000000000
      0.0000000000       0.0000000000       3.7828035000
Li Tb
6 2
direct
   0.1496690000000000    0.2993380000000000    0.2500000000000000 Li
   0.7006620000000000    0.8503309999999999    0.2500000000000000 Li
   0.1496690000000000    0.8503309999999999    0.2500000000000000 Li
   0.8503309999999999    0.7006620000000000    0.7500000000000000 Li
   0.2993380000000000    0.1496690000000000    0.7500000000000000 Li
   0.8503309999999999    0.1496690000000000    0.7500000000000000 Li
   0.3333333333333333    0.6666666666666666    0.7500000000000000 Tb
   0.6666666666666666    0.3333333333333333    0.2500000000000000 Tb
