Li2 Be2
1.0
      3.4321343310       0.0000000000       0.0000000000
     -0.0000000000       2.0628377159       0.7087147520
      0.0000000000       0.0000000000       5.5383556095
Li Be
2 2
direct
   0.7500000000000000    0.5819898200000000    0.1548577400000000 Li
   0.2500000000000000    0.4180101800000000    0.8451422600000000 Li
   0.7500000000000000    0.1802464400000000    0.5761716400000000 Be
   0.2500000000000000    0.8197535600000000    0.4238283600000000 Be
