Li1 Zn3
1.0
      2.7658822386       0.0000000000       1.5968828550
      0.9219607462       2.6076987825       1.5968828550
      0.0000000000       0.0000000000       3.1937657100
Li Zn
1 3
direct
   0.7500000000000000    0.7500000000000000    0.7500000000000000 Li
   0.0000000000000000    0.0000000000000000    0.0000000000000000 Zn
   0.4999990000000000    0.4999990000000000    0.4999990000000000 Zn
   0.2499990000000000    0.2499990000000000    0.2499990000000000 Zn
