Li1 Zn3
1.0
      3.5034508356       0.0000000000       2.0227182830
      1.1678169452       3.3030851245       2.0227182830
      0.0000000000       0.0000000000       4.0454365660
Li Zn
1 3
direct
   0.7500000000000000    0.7500000000000000    0.7500000000000000 Li
   0.0000000000000000    0.0000000000000000    0.0000000000000000 Zn
   0.4999990000000000    0.4999990000000000    0.4999990000000000 Zn
   0.2499990000000000    0.2499990000000000    0.2499990000000000 Zn
