Li1 Zn3
1.0
      3.3190586863       0.0000000000       1.9162594260
      1.1063528954       3.1292385390       1.9162594260
      0.0000000000       0.0000000000       3.8325188520
Li Zn
1 3
direct
   0.7500000000000000    0.7500000000000000    0.7500000000000000 Li
   0.0000000000000000    0.0000000000000000    0.0000000000000000 Zn
   0.4999990000000000    0.4999990000000000    0.4999990000000000 Zn
   0.2499990000000000    0.2499990000000000    0.2499990000000000 Zn
