Li1 Zn3
1.0
      2.9502743878       0.0000000000       1.7033417120
      0.9834247959       2.7815453680       1.7033417120
      0.0000000000       0.0000000000       3.4066834240
Li Zn
1 3
direct
   0.7500000000000000    0.7500000000000000    0.7500000000000000 Li
   0.0000000000000000    0.0000000000000000    0.0000000000000000 Zn
   0.4999990000000000    0.4999990000000000    0.4999990000000000 Zn
   0.2499990000000000    0.2499990000000000    0.2499990000000000 Zn
