Li3 Sn3
1.0
      2.3539003800       0.0000000000       0.0000000000
      0.0000000000       3.7437976706      -1.0403123358
      0.0000000000       0.0000000000       5.8836880575
Li Sn
3 3
direct
   0.5000000000000000    0.7293200200000000    0.6741660400000000 Li
   0.5000000000000000    0.5000000000000000    0.0000000000000000 Li
   0.5000000000000000    0.2706799800000000    0.3258339600000000 Li
   0.0000000000000000    0.7649431300000000    0.3390769600000000 Sn
   0.0000000000000000    0.2350568700000000    0.6609230400000000 Sn
   0.0000000000000000    0.0000000000000000    0.0000000000000000 Sn
