Li1 Pt1
1.0
      2.0597074350       0.0000000000       0.0000000000
     -1.0298548786       1.7837584139       0.0000000000
      0.0000000000       0.0000000000       3.1278487650
Li Pt
1 1
direct
   0.3333333333333333    0.6666666666666666    0.5000000000000000 Li
   0.0000000000000000    0.0000000000000000    0.0000000000000000 Pt
