Li1 Pt1
1.0
      2.6089627510       0.0000000000       0.0000000000
     -1.3044828463       2.2594273243       0.0000000000
      0.0000000000       0.0000000000       3.9619417690
Li Pt
1 1
direct
   0.3333333333333333    0.6666666666666666    0.5000000000000000 Li
   0.0000000000000000    0.0000000000000000    0.0000000000000000 Pt
