Cu10 N3
1.0
      4.3387263280       0.0000000000       0.0000000000
     -2.1693630925       3.7574472614       0.0000000000
      0.0000000000       0.0000000000       5.2905448000
Cu N
10 3
direct
   0.8365660000000000    0.6731330000000000    0.1708720000000000 Cu
   0.5000000000000000    0.0000000000000000    0.5000000000000000 Cu
   0.1634340000000000    0.3268670000000000    0.8291280000000000 Cu
   0.8365660000000000    0.1634340000000000    0.1708720000000000 Cu
   0.5000000000000000    0.5000000000000000    0.5000000000000000 Cu
   0.1634340000000000    0.8365660000000000    0.8291280000000000 Cu
   0.0000000000000000    0.5000000000000000    0.5000000000000000 Cu
   0.6731330000000000    0.8365660000000000    0.8291280000000000 Cu
   0.3268670000000000    0.1634340000000000    0.1708720000000000 Cu
   0.0000000000000000    0.0000000000000000    0.5000000000000000 Cu
   0.6666666666666666    0.3333333333333333    0.3263530000000000 N
   0.3333333333333333    0.6666666666666666    0.6736470000000000 N
   0.0000000000000000    0.0000000000000000    0.0000000000000000 N
