Li1 S1
1.0
      2.6651140729       0.0000000000      -3.0944075801
     -0.3673702568       2.6396727290      -3.0944075801
      0.0000000000       0.0000000000       4.0838941335
Li S
1 1
direct
   0.5000000000000000    0.5000000000000000    0.0000000000000000 Li
   0.7500000000000000    0.2500000000000000    0.5000000000000000 S
