Li1 S1
1.0
      2.5248449112       0.0000000000      -2.9315440233
     -0.3480349802       2.5007425853      -2.9315440233
      0.0000000000       0.0000000000       3.8689523370
Li S
1 1
direct
   0.5000000000000000    0.5000000000000000    0.0000000000000000 Li
   0.7500000000000000    0.2500000000000000    0.5000000000000000 S
