Li2 F2
1.0
      2.7548457930       0.0000000000       0.0000000000
     -1.3774228199       2.3857664845       0.0000000000
      0.0000000000       0.0000000000       4.3265921130
Li F
2 2
direct
   0.6666666666666666    0.3333333333333333    0.8811542600000000 Li
   0.3333333333333333    0.6666666666666666    0.3811542600000000 Li
   0.6666666666666666    0.3333333333333333    0.4938437400000000 F
   0.3333333333333333    0.6666666666666666    0.9938437400000000 F
