K3 Sr1
1.0
      5.0614845163       0.0000000000       2.9222494480
      1.6871615054       4.7720133658       2.9222494480
      0.0000000000       0.0000000000       5.8444988960
K Sr
3 1
direct
   0.2500000000000000    0.2500000000000000    0.2500000000000000 K
   0.7500000000000000    0.7500000000000000    0.7500000000000000 K
   0.5000000000000000    0.5000000000000000    0.5000000000000000 K
   0.0000000000000000    0.0000000000000000    0.0000000000000000 Sr
