K3 Sr1
1.0
      6.0105128631       0.0000000000       3.4701712195
      2.0035042877       5.6667658719       3.4701712195
      0.0000000000       0.0000000000       6.9403424390
K Sr
3 1
direct
   0.2500000000000000    0.2500000000000000    0.2500000000000000 K
   0.7500000000000000    0.7500000000000000    0.7500000000000000 K
   0.5000000000000000    0.5000000000000000    0.5000000000000000 K
   0.0000000000000000    0.0000000000000000    0.0000000000000000 Sr
