K3 Sr1
1.0
      5.6941700809       0.0000000000       3.2875306290
      1.8980566936       5.3685150365       3.2875306290
      0.0000000000       0.0000000000       6.5750612580
K Sr
3 1
direct
   0.2500000000000000    0.2500000000000000    0.2500000000000000 K
   0.7500000000000000    0.7500000000000000    0.7500000000000000 K
   0.5000000000000000    0.5000000000000000    0.5000000000000000 K
   0.0000000000000000    0.0000000000000000    0.0000000000000000 Sr
