K3 Sr1
1.0
      5.3778272986       0.0000000000       3.1048900385
      1.7926090995       5.0702642012       3.1048900385
      0.0000000000       0.0000000000       6.2097800770
K Sr
3 1
direct
   0.2500000000000000    0.2500000000000000    0.2500000000000000 K
   0.7500000000000000    0.7500000000000000    0.7500000000000000 K
   0.5000000000000000    0.5000000000000000    0.5000000000000000 K
   0.0000000000000000    0.0000000000000000    0.0000000000000000 Sr
