K3 Sr1
1.0
      4.7451417341       0.0000000000       2.7396088575
      1.5817139114       4.4737625305       2.7396088575
      0.0000000000       0.0000000000       5.4792177150
K Sr
3 1
direct
   0.2500000000000000    0.2500000000000000    0.2500000000000000 K
   0.7500000000000000    0.7500000000000000    0.7500000000000000 K
   0.5000000000000000    0.5000000000000000    0.5000000000000000 K
   0.0000000000000000    0.0000000000000000    0.0000000000000000 Sr
