Li1 Ag3
1.0
      3.1384435156       0.0000000000      -2.8124992906
     -0.6260844332       3.0753611143      -2.8124992906
      0.0000000000       0.0000000000       4.2142591235
Li Ag
1 3
direct
   0.0000000000000000    0.0000000000000000    0.0000000000000000 Li
   0.7499990000000000    0.2500000000000000    0.4999990000000000 Ag
   0.2500000000000000    0.7499990000000000    0.4999990000000000 Ag
   0.5000000000000000    0.5000000000000000    0.0000000000000000 Ag
