Li1 Ag3
1.0
      3.3230578400       0.0000000000      -2.9779404253
     -0.6629129293       3.2562647092      -2.9779404253
      0.0000000000       0.0000000000       4.4621567190
Li Ag
1 3
direct
   0.0000000000000000    0.0000000000000000    0.0000000000000000 Li
   0.7499990000000000    0.2500000000000000    0.4999990000000000 Ag
   0.2500000000000000    0.7499990000000000    0.4999990000000000 Ag
   0.5000000000000000    0.5000000000000000    0.0000000000000000 Ag
