Li3 Nb1
1.0
      3.0875582795       0.0000000000      -3.3980161869
     -0.4611394307       3.0529275384      -3.3980161869
      0.0000000000       0.0000000000       4.5912449440
Li Nb
3 1
direct
   0.7500000000000000    0.2500000000000000    0.5000000000000000 Li
   0.2500000000000000    0.7500000000000000    0.5000000000000000 Li
   0.5000000000000000    0.5000000000000000    0.0000000000000000 Li
   0.0000000000000000    0.0000000000000000    0.0000000000000000 Nb
