Li3 Nb1
1.0
      3.4508004300       0.0000000000      -3.7977827972
     -0.5153911285       3.4120954841      -3.7977827972
      0.0000000000       0.0000000000       5.1313914080
Li Nb
3 1
direct
   0.7500000000000000    0.2500000000000000    0.5000000000000000 Li
   0.2500000000000000    0.7500000000000000    0.5000000000000000 Li
   0.5000000000000000    0.5000000000000000    0.0000000000000000 Li
   0.0000000000000000    0.0000000000000000    0.0000000000000000 Nb
