Li8 Ca4
1.0
      5.5739437920       0.0000000000       0.0000000000
     -2.7869714301       4.8271749994       0.0000000000
      0.0000000000       0.0000000000       9.1653439140
Li Ca
8 4
direct
   0.3354886500000000    0.1677443200000000    0.7500000000000000 Li
   0.1677443200000000    0.8322556800000001    0.2500000000000000 Li
   0.1677443200000000    0.3354886500000000    0.2500000000000000 Li
   0.8322556800000001    0.6645113499999999    0.7500000000000000 Li
   0.8322556800000001    0.1677443200000000    0.7500000000000000 Li
   0.0000000000000000    0.0000000000000000    0.0000000000000000 Li
   0.6645113499999999    0.8322556800000001    0.2500000000000000 Li
   0.0000000000000000    0.0000000000000000    0.5000000000000000 Li
   0.6666666666666666    0.3333333333333333    0.0621896900000000 Ca
   0.3333333333333333    0.6666666666666666    0.5621896900000000 Ca
   0.3333333333333333    0.6666666666666666    0.9378103100000000 Ca
   0.6666666666666666    0.3333333333333333    0.4378103100000000 Ca
