K6 Ac2
1.0
      6.6524816475       0.0000000000       0.0000000000
     -3.3262404688       5.7612183099       0.0000000000
      0.0000000000       0.0000000000       5.4958035000
K Ac
6 2
direct
   0.1683410000000000    0.3366830000000000    0.2500000000000000 K
   0.6633170000000000    0.8316590000000000    0.2500000000000000 K
   0.1683410000000000    0.8316590000000000    0.2500000000000000 K
   0.8316590000000000    0.6633170000000000    0.7500000000000000 K
   0.3366830000000000    0.1683410000000000    0.7500000000000000 K
   0.8316590000000000    0.1683410000000000    0.7500000000000000 K
   0.3333333333333333    0.6666666666666666    0.7500000000000000 Ac
   0.6666666666666666    0.3333333333333333    0.2500000000000000 Ac
