K6 Ac2
1.0
      7.9829779770       0.0000000000       0.0000000000
     -3.9914885626       6.9134619718       0.0000000000
      0.0000000000       0.0000000000       6.5949642000
K Ac
6 2
direct
   0.1683410000000000    0.3366830000000000    0.2500000000000000 K
   0.6633170000000000    0.8316590000000000    0.2500000000000000 K
   0.1683410000000000    0.8316590000000000    0.2500000000000000 K
   0.8316590000000000    0.6633170000000000    0.7500000000000000 K
   0.3366830000000000    0.1683410000000000    0.7500000000000000 K
   0.8316590000000000    0.1683410000000000    0.7500000000000000 K
   0.3333333333333333    0.6666666666666666    0.7500000000000000 Ac
   0.6666666666666666    0.3333333333333333    0.2500000000000000 Ac
