K2 O2
1.0
      4.4933438650       0.0000000000       0.0000000000
     -3.3425861561       3.0028747690       0.0000000000
      0.0000000000       0.0000000000       3.4246406500
K O
2 2
direct
   0.1299450000000000    0.8700550000000000    0.2500000000000000 K
   0.8700550000000000    0.1299450000000000    0.7500000000000000 K
   0.4196100000000000    0.5803900000000000    0.2500000000000000 O
   0.5803900000000000    0.4196100000000000    0.7500000000000000 O
