Li1 In3
1.0
      4.0435655400       0.0000000000       0.0000000000
     -0.0000000000       4.0435655400       0.0000000000
      0.0000000000       0.0000000000       4.0435637040
Li In
1 3
direct
   0.5000000000000000    0.5000000000000000    0.5000000000000000 Li
   0.5000000000000000    0.0000000000000000    0.0000000000000000 In
   0.0000000000000000    0.5000000000000000    0.0000000000000000 In
   0.0000000000000000    0.0000000000000000    0.5000000000000000 In
