Zn16 Cu10
1.0
      6.7828321898       0.0000000000      -2.3980935776
     -3.3914165688       5.8741039797      -2.3980935770
      0.0000000000       0.0000000000       7.1942788165
Zn Cu
16 10
direct
   0.2189743900000000    0.2189743900000000    0.2189743900000000 Zn
   0.0000000000000000    0.7810256100000000    0.0000000000000000 Zn
   0.7810256100000000    0.0000000000000000    0.0000000000000000 Zn
   0.0000000000000000    0.0000000000000000    0.7810256100000000 Zn
   0.3481953000000000    0.3481953000000000    0.6269735200000000 Zn
   0.6518047000000000    0.2787792200000000    0.0000000000000000 Zn
   0.2787792200000000    0.6518047000000000    0.0000000000000000 Zn
   0.0000000000000000    0.2787792200000000    0.6518047000000000 Zn
   0.3730264800000000    0.7212207800000000    0.7212207800000000 Zn
   0.7212207800000000    0.3730264800000000    0.7212207800000000 Zn
   0.2787792200000000    0.0000000000000000    0.6518047000000000 Zn
   0.6518047000000000    0.0000000000000000    0.2787792200000000 Zn
   0.0000000000000000    0.6518047000000000    0.2787792200000000 Zn
   0.6269735200000000    0.3481953000000000    0.3481953000000000 Zn
   0.3481953000000000    0.6269735200000000    0.3481953000000000 Zn
   0.7212207800000000    0.7212207800000000    0.3730264800000000 Zn
   0.6552721500000001    0.6552721500000001    0.6552721500000001 Cu
   0.3447278500000000    0.0000000000000000    0.0000000000000000 Cu
   0.0000000000000000    0.3447278500000000    0.0000000000000000 Cu
   0.0000000000000000    0.0000000000000000    0.3447278500000000 Cu
   0.6442649000000000    0.0000000000000000    0.6442649000000000 Cu
   0.6442649000000000    0.6442649000000000    0.0000000000000000 Cu
   0.3557351000000000    0.3557351000000000    0.0000000000000000 Cu
   0.3557351000000000    0.0000000000000000    0.3557351000000000 Cu
   0.0000000000000000    0.3557351000000000    0.3557351000000000 Cu
   0.0000000000000000    0.6442649000000000    0.6442649000000000 Cu
