Cu6 Ge2
1.0
      3.8599853710       0.0000000000       0.0000000000
     -0.0000000000       3.5451521200       0.0000000000
      0.0000000000       0.0000000000       4.4293740890
Cu Ge
6 2
direct
   0.1633117200000000    0.7500000000000000    0.2500000000000000 Cu
   0.8366882800000000    0.2500000000000000    0.7500000000000000 Cu
   0.3370990300000000    0.2500000000000000    0.5016889800000000 Cu
   0.3370990300000000    0.2500000000000000    0.9983110200000000 Cu
   0.6629009700000000    0.7500000000000000    0.4983110200000000 Cu
   0.6629009700000000    0.7500000000000000    0.0016889800000000 Cu
   0.8248574000000000    0.2500000000000000    0.2500000000000000 Ge
   0.1751426000000000    0.7500000000000000    0.7500000000000000 Ge
