Li2 B1
1.0
      1.5395046371       0.0000000000       0.0015124224
      0.0014250396       2.5129571779       1.4497409290
      0.0000000000       0.0000000000       2.9011560450
Li B
2 1
direct
   0.0060990000000000    0.3332530000000000    0.3332530000000000 Li
   0.9939010000000000    0.6667470000000000    0.6667470000000000 Li
   0.5000000000000000    0.0000000000000000    0.0000000000000000 B
