Li2 B1
1.0
      1.7447719220       0.0000000000       0.0017140787
      0.0016150449       2.8480181349       1.6430397195
      0.0000000000       0.0000000000       3.2879768510
Li B
2 1
direct
   0.0060990000000000    0.3332530000000000    0.3332530000000000 Li
   0.9939010000000000    0.6667470000000000    0.6667470000000000 Li
   0.5000000000000000    0.0000000000000000    0.0000000000000000 B
