Li2 Mg4
1.0
      2.8431843120       0.0000000000       0.0000000000
     -1.4215919957       2.4622699344       0.0000000000
      0.0000000000       0.0000000000      13.4737122330
Li Mg
2 4
direct
   0.6666666666666666    0.3333333333333333    0.7500000000000000 Li
   0.3333333333333333    0.6666666666666666    0.2500000000000000 Li
   0.3333333333333333    0.6666666666666666    0.9140301300000000 Mg
   0.3333333333333333    0.6666666666666666    0.5859698700000000 Mg
   0.6666666666666666    0.3333333333333333    0.4140301300000000 Mg
   0.6666666666666666    0.3333333333333333    0.0859698700000000 Mg
