Li6 Co2
1.0
      4.7655741690       0.0000000000       0.0000000000
     -2.3827874533       4.1271080810       0.0000000000
      0.0000000000       0.0000000000       3.9848391000
Li Co
6 2
direct
   0.1737840000000000    0.3475670000000000    0.2500000000000000 Li
   0.6524330000000000    0.8262160000000000    0.2500000000000000 Li
   0.1737840000000000    0.8262160000000000    0.2500000000000000 Li
   0.8262160000000000    0.6524330000000000    0.7500000000000000 Li
   0.3475670000000000    0.1737840000000000    0.7500000000000000 Li
   0.8262160000000000    0.1737840000000000    0.7500000000000000 Li
   0.3333333333333333    0.6666666666666666    0.7500000000000000 Co
   0.6666666666666666    0.3333333333333333    0.2500000000000000 Co
