Mn4 O4
1.0
      2.7743567200       0.0000000000      -0.0000005752
      0.0002875468       4.6930327752       0.0000094662
      0.0000000000       0.0000000000       4.3785277440
Mn O
4 4
direct
   0.4999794400000000    0.8250488900000000    0.4976573300000000 Mn
   0.5000207600000000    0.1749507500000000    0.9976590200000000 Mn
   0.9999510800000000    0.3250469900000000    0.4976497100000000 Mn
   0.0000496900000000    0.6749546000000000    0.9976482200000000 Mn
   0.0000025100000000    0.3376650000000000    0.1159128400000000 O
   0.5000348300000000    0.8376599200000000    0.1159194700000000 O
   0.4999660600000000    0.1623384500000000    0.6159205900000000 O
   0.9999976400000000    0.6623364100000000    0.6159118400000000 O
