Li3 Mg3
1.0
      7.7023278725       0.0000000000       0.0000000000
     -7.1026123007       2.9797236720       0.0000000000
      0.0000000000       0.0000000000       4.7846721500
Li Mg
3 3
direct
   0.9985950000000000    0.0014050000000000    0.0000000000000000 Li
   0.6652439999999999    0.3347560000000000    0.0000000000000000 Li
   0.1116140000000000    0.8883860000000000    0.5000000000000000 Li
   0.3324750000000000    0.6675250000000000    0.0000000000000000 Mg
   0.4499590000000000    0.5500410000000000    0.5000000000000000 Mg
   0.7754460000000000    0.2245540000000000    0.5000000000000000 Mg
