K3 Ba1
1.0
      6.1010023407       0.0000000000       3.5224153438
      2.0336674469       5.7520801696       3.5224153438
      0.0000000000       0.0000000000       7.0448306875
K Ba
3 1
direct
   0.2500000000000000    0.2500000000000000    0.2500000000000000 K
   0.7500000000000000    0.7500000000000000    0.7500000000000000 K
   0.5000000000000000    0.5000000000000000    0.5000000000000000 K
   0.0000000000000000    0.0000000000000000    0.0000000000000000 Ba
