K3 Ba1
1.0
      5.1376861817       0.0000000000       2.9662445000
      1.7125620606       4.8438569849       2.9662445000
      0.0000000000       0.0000000000       5.9324890000
K Ba
3 1
direct
   0.2500000000000000    0.2500000000000000    0.2500000000000000 K
   0.7500000000000000    0.7500000000000000    0.7500000000000000 K
   0.5000000000000000    0.5000000000000000    0.5000000000000000 K
   0.0000000000000000    0.0000000000000000    0.0000000000000000 Ba
