K3 Ba1
1.0
      4.8165807953       0.0000000000       2.7808542188
      1.6055269318       4.5411159233       2.7808542188
      0.0000000000       0.0000000000       5.5617084375
K Ba
3 1
direct
   0.2500000000000000    0.2500000000000000    0.2500000000000000 K
   0.7500000000000000    0.7500000000000000    0.7500000000000000 K
   0.5000000000000000    0.5000000000000000    0.5000000000000000 K
   0.0000000000000000    0.0000000000000000    0.0000000000000000 Ba
