K3 Ba1
1.0
      5.7798969544       0.0000000000       3.3370250625
      1.9266323181       5.4493391080       3.3370250625
      0.0000000000       0.0000000000       6.6740501250
K Ba
3 1
direct
   0.2500000000000000    0.2500000000000000    0.2500000000000000 K
   0.7500000000000000    0.7500000000000000    0.7500000000000000 K
   0.5000000000000000    0.5000000000000000    0.5000000000000000 K
   0.0000000000000000    0.0000000000000000    0.0000000000000000 Ba
