K3 Ba1
1.0
      5.4587915680       0.0000000000       3.1516347813
      1.8195971893       5.1465980464       3.1516347813
      0.0000000000       0.0000000000       6.3032695625
K Ba
3 1
direct
   0.2500000000000000    0.2500000000000000    0.2500000000000000 K
   0.7500000000000000    0.7500000000000000    0.7500000000000000 K
   0.5000000000000000    0.5000000000000000    0.5000000000000000 K
   0.0000000000000000    0.0000000000000000    0.0000000000000000 Ba
