Li4 Tl2
1.0
      3.1968779931       0.0000000000      -1.4845952522
     -0.0000000000       3.5606240850       0.0000000000
      0.0000000000       0.0000000000       4.1843247600
Li Tl
4 2
direct
   0.2415533200000000    0.7500000000000000    0.4831066400000000 Li
   0.7584466800000000    0.2500000000000000    0.5168933600000000 Li
   0.5833936700000000    0.7500000000000000    0.1667873300000000 Li
   0.4166063300000000    0.2500000000000000    0.8332126700000000 Li
   0.9041980900000000    0.7500000000000000    0.8083941700000000 Tl
   0.0958019100000000    0.2500000000000000    0.1916058300000000 Tl
