Mn1 Sb1
1.0
      2.7385452062       0.0000000000       1.5810998120
      0.9128484021       2.5819251812       1.5810998120
      0.0000000000       0.0000000000       3.1621996240
Mn Sb
1 1
direct
   0.0000000000000000    0.0000000000000000    0.0000000000000000 Mn
   0.5000000000000000    0.5000000000000000    0.5000000000000000 Sb
