Mn1 Sb1
1.0
      2.9097042816       0.0000000000       1.6799185503
      0.9699014272       2.7432955050       1.6799185503
      0.0000000000       0.0000000000       3.3598371005
Mn Sb
1 1
direct
   0.0000000000000000    0.0000000000000000    0.0000000000000000 Mn
   0.5000000000000000    0.5000000000000000    0.5000000000000000 Sb
