Mn1 Sb1
1.0
      2.5673861308       0.0000000000       1.4822810738
      0.8557953769       2.4205548574       1.4822810738
      0.0000000000       0.0000000000       2.9645621475
Mn Sb
1 1
direct
   0.0000000000000000    0.0000000000000000    0.0000000000000000 Mn
   0.5000000000000000    0.5000000000000000    0.5000000000000000 Sb
