Mn1 Sb1
1.0
      3.0808633570       0.0000000000       1.7787372885
      1.0269544523       2.9046658289       1.7787372885
      0.0000000000       0.0000000000       3.5574745770
Mn Sb
1 1
direct
   0.0000000000000000    0.0000000000000000    0.0000000000000000 Mn
   0.5000000000000000    0.5000000000000000    0.5000000000000000 Sb
