Mn1 Sb1
1.0
      3.2520224324       0.0000000000       1.8775560268
      1.0840074775       3.0660361527       1.8775560268
      0.0000000000       0.0000000000       3.7551120535
Mn Sb
1 1
direct
   0.0000000000000000    0.0000000000000000    0.0000000000000000 Mn
   0.5000000000000000    0.5000000000000000    0.5000000000000000 Sb
