Cu3 Sb1
1.0
      2.8357928460       0.0000000000       0.0000000000
      1.4199068909       2.4570282900       0.0000000000
      0.0000000000       0.0000000000       6.7900176000
Cu Sb
3 1
direct
   0.3335580000000000    0.3332210000000000    0.8750000000000000 Cu
   0.6665600000000000    0.6666666666666666    0.0941970000000000 Cu
   0.6665600000000000    0.6666666666666666    0.6558030000000000 Cu
   0.3333333333333333    0.3333333333333333    0.3750000000000000 Sb
