Cu3 Sb1
1.0
      2.6782487990       0.0000000000       0.0000000000
      1.3410231747       2.3205267183       0.0000000000
      0.0000000000       0.0000000000       6.4127944000
Cu Sb
3 1
direct
   0.3335580000000000    0.3332210000000000    0.8750000000000000 Cu
   0.6665600000000000    0.6666666666666666    0.0941970000000000 Cu
   0.6665600000000000    0.6666666666666666    0.6558030000000000 Cu
   0.3333333333333333    0.3333333333333333    0.3750000000000000 Sb
