K1 Ca3
1.0
      5.4657186000       0.0000000000       0.0000000000
     -0.0000000000       5.4657186000       0.0000000000
      0.0000000000       0.0000000000       5.4657186000
K Ca
1 3
direct
   0.0000000000000000    0.0000000000000000    0.0000000000000000 K
   0.0000000000000000    0.5000000000000000    0.5000000000000000 Ca
   0.5000000000000000    0.0000000000000000    0.5000000000000000 Ca
   0.5000000000000000    0.5000000000000000    0.0000000000000000 Ca
