Li1 Ir1
1.0
      1.9898120250       0.0000000000       0.0000000000
     -0.9948779783       1.7232441728       0.0000000000
      0.0000000000       0.0000000000       3.2663606250
Li Ir
1 1
direct
   0.3333333333333333    0.6666666666666666    0.5000000000000000 Li
   0.9999999500000000    0.0000000600000000    0.0000000000000000 Ir
