Mn1 Ni1
1.0
      2.5685412485       0.0000000000       0.0000000000
     -0.4076376594       2.5359881080       0.0000000000
      0.0000000000       0.0000000000       3.2205874000
Mn Ni
1 1
direct
   0.0000000000000000    0.0000000000000000    0.0000000000000000 Mn
   0.5000000000000000    0.5000000000000000    0.5000000000000000 Ni
