Mn1 Ni1
1.0
      2.2981684855       0.0000000000       0.0000000000
     -0.3647284321       2.2690419914       0.0000000000
      0.0000000000       0.0000000000       2.8815782000
Mn Ni
1 1
direct
   0.0000000000000000    0.0000000000000000    0.0000000000000000 Mn
   0.5000000000000000    0.5000000000000000    0.5000000000000000 Ni
