Mn1 Ni1
1.0
      2.1629821040       0.0000000000       0.0000000000
     -0.3432738184       2.1355689331       0.0000000000
      0.0000000000       0.0000000000       2.7120736000
Mn Ni
1 1
direct
   0.0000000000000000    0.0000000000000000    0.0000000000000000 Mn
   0.5000000000000000    0.5000000000000000    0.5000000000000000 Ni
