Mn1 Ni1
1.0
      2.0277957225       0.0000000000       0.0000000000
     -0.3218192048       2.0020958747       0.0000000000
      0.0000000000       0.0000000000       2.5425690000
Mn Ni
1 1
direct
   0.0000000000000000    0.0000000000000000    0.0000000000000000 Mn
   0.5000000000000000    0.5000000000000000    0.5000000000000000 Ni
