Mn1 Ni1
1.0
      2.4333548670       0.0000000000       0.0000000000
     -0.3861830457       2.4025150497       0.0000000000
      0.0000000000       0.0000000000       3.0510828000
Mn Ni
1 1
direct
   0.0000000000000000    0.0000000000000000    0.0000000000000000 Mn
   0.5000000000000000    0.5000000000000000    0.5000000000000000 Ni
