K1 La3
1.0
      4.9107483000       0.0000000000       0.0000000000
     -0.0000000000       4.9107483000       0.0000000000
      0.0000000000       0.0000000000       4.9107483000
K La
1 3
direct
   0.0000000000000000    0.0000000000000000    0.0000000000000000 K
   0.0000000000000000    0.5000000000000000    0.5000000000000000 La
   0.5000000000000000    0.0000000000000000    0.5000000000000000 La
   0.5000000000000000    0.5000000000000000    0.0000000000000000 La
