Li4 Mg2
1.0
      4.2393717760       0.0000000000       0.0000000000
     -2.1519378340       3.6525931355       0.0000000000
      0.0000000000       0.0000000000       4.0566426000
Li Mg
4 2
direct
   0.0105156900000000    0.3336728600000000    0.7500000000000000 Li
   0.3336728600000000    0.0105156900000000    0.7500000000000000 Li
   0.6663271400000000    0.9894843100000000    0.2500000000000000 Li
   0.9894843100000000    0.6663271400000000    0.2500000000000000 Li
   0.6711410600000000    0.6711410600000000    0.7500000000000000 Mg
   0.3288589400000000    0.3288589400000000    0.2500000000000000 Mg
