Li1 Pd3
1.0
      2.8881286800       0.0000000000      -0.0000015455
     -0.0000000000       2.8879977975       0.0000000000
      0.0000000000       0.0000000000       2.8863673800
Li Pd
1 3
direct
   0.0000000000000000    0.0000000000000000    0.0000000000000000 Li
   0.0000010000000000    0.5000000000000000    0.5000000000000000 Pd
   0.5000000000000000    0.0000010000000000    0.5000010000000000 Pd
   0.5000010000000000    0.5000010000000000    0.0000010000000000 Pd
