Li1 Pd3
1.0
      3.4657544160       0.0000000000      -0.0000018546
     -0.0000000000       3.4655973570       0.0000000000
      0.0000000000       0.0000000000       3.4636408560
Li Pd
1 3
direct
   0.0000000000000000    0.0000000000000000    0.0000000000000000 Li
   0.0000010000000000    0.5000000000000000    0.5000000000000000 Pd
   0.5000000000000000    0.0000010000000000    0.5000010000000000 Pd
   0.5000010000000000    0.5000010000000000    0.0000010000000000 Pd
