Li1 Pd3
1.0
      3.6582963280       0.0000000000      -0.0000019576
     -0.0000000000       3.6581305435       0.0000000000
      0.0000000000       0.0000000000       3.6560653480
Li Pd
1 3
direct
   0.0000000000000000    0.0000000000000000    0.0000000000000000 Li
   0.0000010000000000    0.5000000000000000    0.5000000000000000 Pd
   0.5000000000000000    0.0000010000000000    0.5000010000000000 Pd
   0.5000010000000000    0.5000010000000000    0.0000010000000000 Pd
