Li1 Pd3
1.0
      3.2732125040       0.0000000000      -0.0000017516
     -0.0000000000       3.2730641705       0.0000000000
      0.0000000000       0.0000000000       3.2712163640
Li Pd
1 3
direct
   0.0000000000000000    0.0000000000000000    0.0000000000000000 Li
   0.0000010000000000    0.5000000000000000    0.5000000000000000 Pd
   0.5000000000000000    0.0000010000000000    0.5000010000000000 Pd
   0.5000010000000000    0.5000010000000000    0.0000010000000000 Pd
