Mn7 Pd9
1.0
      5.5445187023       0.0000000000      -2.0032181632
     -2.7321229280       4.8246442301      -2.0032181632
      0.0000000000       0.0000000000       5.8953007260
Mn Pd
7 9
direct
   0.5000000000000000    0.0000000000000000    0.5000000000000000 Mn
   0.0000000000000000    0.5000000000000000    0.5000000000000000 Mn
   0.5000000000000000    0.5000000000000000    0.0000000000000000 Mn
   0.2556800000000000    0.2556800000000000    0.5113610000000000 Mn
   0.7443200000000000    0.7443200000000000    0.4886390000000000 Mn
   0.2556800000000000    0.7443200000000000    0.0000000000000000 Mn
   0.7443200000000000    0.2556800000000000    0.0000000000000000 Mn
   0.5094660000000000    0.2565220000000000    0.2529430000000000 Pd
   0.4905340000000000    0.7434780000000000    0.7470570000000000 Pd
   0.0035790000000000    0.2565220000000000    0.7470570000000000 Pd
   0.2565220000000000    0.0035790000000000    0.7470570000000000 Pd
   0.9964210000000000    0.7434780000000000    0.2529430000000000 Pd
   0.7434780000000000    0.9964210000000000    0.2529430000000000 Pd
   0.2565220000000000    0.5094660000000000    0.2529430000000000 Pd
   0.7434780000000000    0.4905340000000000    0.7470570000000000 Pd
   0.0000000000000000    0.0000000000000000    0.0000000000000000 Pd
