Li3 Mg3
1.0
      4.7599933699       0.0000000000       1.3862713267
      4.0081441080       2.5675509130       1.3862713267
      0.0000000000       0.0000000000       6.3078181505
Li Mg
3 3
direct
   0.6115119999999999    0.6115119999999999    0.2770470000000000 Li
   0.3327650000000000    0.3327650000000000    0.3346270000000000 Li
   0.9458160000000000    0.9458160000000000    0.6084190000000000 Li
   0.9975039999999999    0.9975039999999999    0.0088750000000000 Mg
   0.6668210000000000    0.6668210000000000    0.6608800000000000 Mg
   0.2789140000000000    0.2789140000000000    0.9434840000000000 Mg
