Ti2 Zn1
1.0
      2.6219602766       0.0000000000      -0.7196304469
     -0.1975116873       2.6145095332      -0.7196301942
      0.0000000000       0.0000000000       5.1363403020
Ti Zn
2 1
direct
   0.6637404800000000    0.6637404800000000    0.3274799700000000 Ti
   0.3362595200000000    0.3362595200000000    0.6725200300000000 Ti
   0.0000000000000000    0.0000000000000000    0.0000000000000000 Zn
