Cu4 Au1
1.0
      2.4180772198       0.0000000000       9.2467425453
      1.1890454507       2.1055327965       9.2467425453
      0.0000000000       0.0000000000       9.5576852430
Cu Au
4 1
direct
   0.5942420000000000    0.5942420000000000    0.5942420000000000 Cu
   0.1979570000000000    0.1979570000000000    0.1979570000000000 Cu
   0.8020430000000000    0.8020430000000000    0.8020430000000000 Cu
   0.4057580000000000    0.4057580000000000    0.4057580000000000 Cu
   0.0000000000000000    0.0000000000000000    0.0000000000000000 Au
