Cu4 Au1
1.0
      2.5524148431       0.0000000000       9.7604504645
      1.2551035313       2.2225068407       9.7604504645
      0.0000000000       0.0000000000      10.0886677565
Cu Au
4 1
direct
   0.5942420000000000    0.5942420000000000    0.5942420000000000 Cu
   0.1979570000000000    0.1979570000000000    0.1979570000000000 Cu
   0.8020430000000000    0.8020430000000000    0.8020430000000000 Cu
   0.4057580000000000    0.4057580000000000    0.4057580000000000 Cu
   0.0000000000000000    0.0000000000000000    0.0000000000000000 Au
