Cu4 Au1
1.0
      2.0150643498       0.0000000000       7.7056187877
      0.9908712090       1.7546106637       7.7056187877
      0.0000000000       0.0000000000       7.9647377025
Cu Au
4 1
direct
   0.5942420000000000    0.5942420000000000    0.5942420000000000 Cu
   0.1979570000000000    0.1979570000000000    0.1979570000000000 Cu
   0.8020430000000000    0.8020430000000000    0.8020430000000000 Cu
   0.4057580000000000    0.4057580000000000    0.4057580000000000 Cu
   0.0000000000000000    0.0000000000000000    0.0000000000000000 Au
