Cu4 Au1
1.0
      2.2837395965       0.0000000000       8.7330346261
      1.1229873701       1.9885587522       8.7330346261
      0.0000000000       0.0000000000       9.0267027295
Cu Au
4 1
direct
   0.5942420000000000    0.5942420000000000    0.5942420000000000 Cu
   0.1979570000000000    0.1979570000000000    0.1979570000000000 Cu
   0.8020430000000000    0.8020430000000000    0.8020430000000000 Cu
   0.4057580000000000    0.4057580000000000    0.4057580000000000 Cu
   0.0000000000000000    0.0000000000000000    0.0000000000000000 Au
