Cu4 Au1
1.0
      2.1494019732       0.0000000000       8.2193267069
      1.0569292895       1.8715847080       8.2193267069
      0.0000000000       0.0000000000       8.4957202160
Cu Au
4 1
direct
   0.5942420000000000    0.5942420000000000    0.5942420000000000 Cu
   0.1979570000000000    0.1979570000000000    0.1979570000000000 Cu
   0.8020430000000000    0.8020430000000000    0.8020430000000000 Cu
   0.4057580000000000    0.4057580000000000    0.4057580000000000 Cu
   0.0000000000000000    0.0000000000000000    0.0000000000000000 Au
