Fe1 Cu4
1.0
      2.1521266791       0.0000000000       8.7430714416
      1.0602395689       1.8728431059       8.7430714416
      0.0000000000       0.0000000000       9.0040513005
Fe Cu
1 4
direct
   0.0000000000000000    0.0000000000000000    0.0000000000000000 Fe
   0.5998150000000000    0.5998150000000000    0.5998150000000000 Cu
   0.1999540000000000    0.1999540000000000    0.1999540000000000 Cu
   0.8000460000000000    0.8000460000000000    0.8000460000000000 Cu
   0.4001850000000000    0.4001850000000000    0.4001850000000000 Cu
