Fe1 Cu4
1.0
      2.2787223661       0.0000000000       9.2573697617
      1.1226066023       1.9830103475       9.2573697617
      0.0000000000       0.0000000000       9.5337013770
Fe Cu
1 4
direct
   0.0000000000000000    0.0000000000000000    0.0000000000000000 Fe
   0.5998150000000000    0.5998150000000000    0.5998150000000000 Cu
   0.1999540000000000    0.1999540000000000    0.1999540000000000 Cu
   0.8000460000000000    0.8000460000000000    0.8000460000000000 Cu
   0.4001850000000000    0.4001850000000000    0.4001850000000000 Cu
