Fe1 Cu4
1.0
      2.0255309921       0.0000000000       8.2287731215
      0.9978725354       1.7626758644       8.2287731215
      0.0000000000       0.0000000000       8.4744012240
Fe Cu
1 4
direct
   0.0000000000000000    0.0000000000000000    0.0000000000000000 Fe
   0.5998150000000000    0.5998150000000000    0.5998150000000000 Cu
   0.1999540000000000    0.1999540000000000    0.1999540000000000 Cu
   0.8000460000000000    0.8000460000000000    0.8000460000000000 Cu
   0.4001850000000000    0.4001850000000000    0.4001850000000000 Cu
