Fe1 Cu4
1.0
      1.8989353051       0.0000000000       7.7144748014
      0.9355055019       1.6525086229       7.7144748014
      0.0000000000       0.0000000000       7.9447511475
Fe Cu
1 4
direct
   0.0000000000000000    0.0000000000000000    0.0000000000000000 Fe
   0.5998150000000000    0.5998150000000000    0.5998150000000000 Cu
   0.1999540000000000    0.1999540000000000    0.1999540000000000 Cu
   0.8000460000000000    0.8000460000000000    0.8000460000000000 Cu
   0.4001850000000000    0.4001850000000000    0.4001850000000000 Cu
