Fe1 Cu4
1.0
      2.4053180531       0.0000000000       9.7716680818
      1.1849736358       2.0931775890       9.7716680818
      0.0000000000       0.0000000000      10.0633514535
Fe Cu
1 4
direct
   0.0000000000000000    0.0000000000000000    0.0000000000000000 Fe
   0.5998150000000000    0.5998150000000000    0.5998150000000000 Cu
   0.1999540000000000    0.1999540000000000    0.1999540000000000 Cu
   0.8000460000000000    0.8000460000000000    0.8000460000000000 Cu
   0.4001850000000000    0.4001850000000000    0.4001850000000000 Cu
