Cu1 Br2
1.0
      3.0450939293       0.0000000000       0.8458678089
      1.5242718348       3.2556255893       0.4167221748
      0.0000000000       0.0000000000       5.9040438750
Cu Br
1 2
direct
   0.0000000000000000    0.0000000000000000    0.0000000000000000 Cu
   0.2716907500000000    0.2251534500000000    0.2314670400000000 Br
   0.7283092500000000    0.7748465500000000    0.7685329600000000 Br
