Cu1 Br2
1.0
      2.7067501594       0.0000000000       0.7518824968
      1.3549082976       2.8938894127       0.3704197109
      0.0000000000       0.0000000000       5.2480390000
Cu Br
1 2
direct
   0.0000000000000000    0.0000000000000000    0.0000000000000000 Cu
   0.2716907500000000    0.2251534500000000    0.2314670400000000 Br
   0.7283092500000000    0.7748465500000000    0.7685329600000000 Br
