Cu1 Br2
1.0
      2.8759220443       0.0000000000       0.7988751529
      1.4395900662       3.0747575010       0.3935709429
      0.0000000000       0.0000000000       5.5760414375
Cu Br
1 2
direct
   0.0000000000000000    0.0000000000000000    0.0000000000000000 Cu
   0.2716907500000000    0.2251534500000000    0.2314670400000000 Br
   0.7283092500000000    0.7748465500000000    0.7685329600000000 Br
