Cu1 Br2
1.0
      3.2142658142       0.0000000000       0.8928604650
      1.6089536034       3.4364936775       0.4398734067
      0.0000000000       0.0000000000       6.2320463125
Cu Br
1 2
direct
   0.0000000000000000    0.0000000000000000    0.0000000000000000 Cu
   0.2716907500000000    0.2251534500000000    0.2314670400000000 Br
   0.7283092500000000    0.7748465500000000    0.7685329600000000 Br
