Cu1 Br2
1.0
      2.5375782744       0.0000000000       0.7048898408
      1.2702265290       2.7130213244       0.3472684790
      0.0000000000       0.0000000000       4.9200365625
Cu Br
1 2
direct
   0.0000000000000000    0.0000000000000000    0.0000000000000000 Cu
   0.2716907500000000    0.2251534500000000    0.2314670400000000 Br
   0.7283092500000000    0.7748465500000000    0.7685329600000000 Br
