Li2 Mg4
1.0
      5.1442458485       0.0000000000       0.0000000000
     -2.5721218722       4.4550481955       0.0000000000
      0.0000000000       0.0000000000       4.7945025790
Li Mg
2 4
direct
   0.6666666666666666    0.3333333333333333    0.5000000000000000 Li
   0.3333333333333333    0.6666666666666666    0.5000000000000000 Li
   0.6614568199999999    0.0000000000000000    0.0000000000000000 Mg
   0.3385431800000000    0.3385431800000000    0.0000000000000000 Mg
   0.0000000000000000    0.6614568199999999    0.0000000000000000 Mg
   0.0000000000000000    0.0000000000000000    0.5000000000000000 Mg
