Mn1 N1
1.0
      2.4613643257       0.0000000000       1.4210693560
      0.8204547752       2.3205965409       1.4210693560
      0.0000000000       0.0000000000       2.8421387120
Mn N
1 1
direct
   0.0000000000000000    0.0000000000000000    0.0000000000000000 Mn
   0.7500000000000000    0.7500000000000000    0.7500000000000000 N
