Mn1 N1
1.0
      1.9431823624       0.0000000000       1.1218968600
      0.6477274541       1.8320499007       1.1218968600
      0.0000000000       0.0000000000       2.2437937200
Mn N
1 1
direct
   0.0000000000000000    0.0000000000000000    0.0000000000000000 Mn
   0.7500000000000000    0.7500000000000000    0.7500000000000000 N
