Mn1 N1
1.0
      2.2022733440       0.0000000000       1.2714831080
      0.7340911147       2.0763232208       1.2714831080
      0.0000000000       0.0000000000       2.5429662160
Mn N
1 1
direct
   0.0000000000000000    0.0000000000000000    0.0000000000000000 Mn
   0.7500000000000000    0.7500000000000000    0.7500000000000000 N
