Mn1 N1
1.0
      2.3318188348       0.0000000000       1.3462762320
      0.7772729449       2.1984598808       1.3462762320
      0.0000000000       0.0000000000       2.6925524640
Mn N
1 1
direct
   0.0000000000000000    0.0000000000000000    0.0000000000000000 Mn
   0.7500000000000000    0.7500000000000000    0.7500000000000000 N
