Mn1 N1
1.0
      2.0727278532       0.0000000000       1.1966899840
      0.6909092844       1.9541865607       1.1966899840
      0.0000000000       0.0000000000       2.3933799680
Mn N
1 1
direct
   0.0000000000000000    0.0000000000000000    0.0000000000000000 Mn
   0.7500000000000000    0.7500000000000000    0.7500000000000000 N
