Ti5 Mn7
1.0
      4.6103950890       0.0000000000      -0.0000016568
     -2.3051443187       3.9927472233      -0.0000003484
      0.0000000000       0.0000000000       6.9694866630
Ti Mn
5 7
direct
   0.6666666666666666    0.3333333333333333    0.0659742800000000 Ti
   0.3333333333333333    0.6666666666666666    0.9340891700000000 Ti
   0.3333333333333333    0.6666666666666666    0.5606892100000000 Ti
   0.6666666666666666    0.3333333333333333    0.4392109600000000 Ti
   0.9999998300000000    0.0000000600000000    0.0000506600000000 Ti
   0.6559399200000000    0.8279675900000000    0.2585770000000000 Mn
   0.1720292500000000    0.8279717700000000    0.2585761600000000 Mn
   0.1720336100000000    0.3440610800000000    0.2585766100000000 Mn
   0.3440070500000000    0.1720054000000000    0.7414342000000000 Mn
   0.8279971600000000    0.1720021400000000    0.7414347800000000 Mn
   0.8279930900000000    0.6559919400000001    0.7414346200000000 Mn
   0.0000002000000000    0.9999998500000000    0.4999523600000000 Mn
