K1 F1
1.0
      2.4442162500       0.0000000000       0.0000000000
     -0.0000000000       2.4442162500       0.0000000000
      0.0000000000       0.0000000000       2.4442162500
K F
1 1
direct
   0.0000000000000000    0.0000000000000000    0.0000000000000000 K
   0.5000000000000000    0.5000000000000000    0.5000000000000000 F
