K1 F1
1.0
      3.0960072500       0.0000000000       0.0000000000
     -0.0000000000       3.0960072500       0.0000000000
      0.0000000000       0.0000000000       3.0960072500
K F
1 1
direct
   0.0000000000000000    0.0000000000000000    0.0000000000000000 K
   0.5000000000000000    0.5000000000000000    0.5000000000000000 F
