Li1 Pd1
1.0
      2.3597922445       0.0000000000       0.0000000000
     -1.1798956849       2.0436401956       0.0000000000
      0.0000000000       0.0000000000       3.4902842970
Li Pd
1 1
direct
   0.0000000000000000    0.0000000000000000    0.0000000000000000 Li
   0.3333333333333333    0.6666666666666666    0.5000000000000000 Pd
