Li1 Pd1
1.0
      2.2209809360       0.0000000000       0.0000000000
     -1.1104900564       1.9234260664       0.0000000000
      0.0000000000       0.0000000000       3.2849734560
Li Pd
1 1
direct
   0.0000000000000000    0.0000000000000000    0.0000000000000000 Li
   0.3333333333333333    0.6666666666666666    0.5000000000000000 Pd
