Li1 Pd1
1.0
      2.4986035530       0.0000000000       0.0000000000
     -1.2493013134       2.1638543247       0.0000000000
      0.0000000000       0.0000000000       3.6955951380
Li Pd
1 1
direct
   0.0000000000000000    0.0000000000000000    0.0000000000000000 Li
   0.3333333333333333    0.6666666666666666    0.5000000000000000 Pd
