Li2 Eu6
1.0
      6.8375121120       0.0000000000       0.0000000000
     -3.4187557646       5.9214593559       0.0000000000
      0.0000000000       0.0000000000       5.6007873000
Li Eu
2 6
direct
   0.6666666666666666    0.3333333333333333    0.2500000000000000 Li
   0.3333333333333333    0.6666666666666666    0.7500000000000000 Li
   0.8308010000000000    0.1691990000000000    0.7500000000000000 Eu
   0.3383980000000000    0.1691990000000000    0.7500000000000000 Eu
   0.8308010000000000    0.6616020000000000    0.7500000000000000 Eu
   0.1691990000000000    0.8308010000000000    0.2500000000000000 Eu
   0.6616020000000000    0.8308010000000000    0.2500000000000000 Eu
   0.1691990000000000    0.3383980000000000    0.2500000000000000 Eu
