Li4 O4
1.0
      2.5021450125       0.0000000000       0.0000000000
     -1.2510720153       2.1669214282       0.0000000000
      0.0000000000       0.0000000000       5.9253562500
Li O
4 4
direct
   0.6666666666666666    0.3333333333333333    0.3976270000000000 Li
   0.3333333333333333    0.6666666666666666    0.8976270000000000 Li
   0.6666666666666666    0.3333333333333333    0.1023730000000000 Li
   0.3333333333333333    0.6666666666666666    0.6023730000000000 Li
   0.6666666666666666    0.3333333333333333    0.6538630000000000 O
   0.6666666666666666    0.3333333333333333    0.8461370000000000 O
   0.3333333333333333    0.6666666666666666    0.1538630000000000 O
   0.3333333333333333    0.6666666666666666    0.3461370000000000 O
