Li4 O4
1.0
      3.0025740150       0.0000000000       0.0000000000
     -1.5012864184       2.6003057138       0.0000000000
      0.0000000000       0.0000000000       7.1104275000
Li O
4 4
direct
   0.6666666666666666    0.3333333333333333    0.3976270000000000 Li
   0.3333333333333333    0.6666666666666666    0.8976270000000000 Li
   0.6666666666666666    0.3333333333333333    0.1023730000000000 Li
   0.3333333333333333    0.6666666666666666    0.6023730000000000 Li
   0.6666666666666666    0.3333333333333333    0.6538630000000000 O
   0.6666666666666666    0.3333333333333333    0.8461370000000000 O
   0.3333333333333333    0.6666666666666666    0.1538630000000000 O
   0.3333333333333333    0.6666666666666666    0.3461370000000000 O
