Li1 Rh3
1.0
      2.1819553669       0.0000000000       0.5945496283
     -0.4934677250       3.4720684353       1.8109918832
      0.0000000000       0.0000000000       4.3010862665
Li Rh
1 3
direct
   0.0000000000000000    0.0125083500000000    0.0000000000000000 Li
   0.2445333300000000    0.9388587600000000    0.5109333500000000 Rh
   0.7554666700000000    0.4497921100000000    0.4890666500000000 Rh
   0.5000000000000000    0.5018407700000000    0.0000000000000000 Rh
