Mn1 Au2
1.0
      2.8683223530       0.0000000000      -1.0352026161
     -0.3736134800       2.8438848412      -1.0352026926
      0.0000000000       0.0000000000       4.4913467790
Mn Au
1 2
direct
   0.0000000000000000    0.0000000000000000    0.0000000000000000 Mn
   0.6603277800000000    0.6603277800000000    0.3206555600000000 Au
   0.3396722200000000    0.3396722200000000    0.6793444400000000 Au
