Mn1 Au2
1.0
      3.0276735948       0.0000000000      -1.0927138726
     -0.3943697845       3.0018784435      -1.0927139533
      0.0000000000       0.0000000000       4.7408660445
Mn Au
1 2
direct
   0.0000000000000000    0.0000000000000000    0.0000000000000000 Mn
   0.6603277800000000    0.6603277800000000    0.3206555600000000 Au
   0.3396722200000000    0.3396722200000000    0.6793444400000000 Au
