Mn1 Au2
1.0
      2.7089711112       0.0000000000      -0.9776913597
     -0.3528571756       2.6858912389      -0.9776914319
      0.0000000000       0.0000000000       4.2418275135
Mn Au
1 2
direct
   0.0000000000000000    0.0000000000000000    0.0000000000000000 Mn
   0.6603277800000000    0.6603277800000000    0.3206555600000000 Au
   0.3396722200000000    0.3396722200000000    0.6793444400000000 Au
