Mn1 Au2
1.0
      2.3902686275       0.0000000000      -0.8626688468
     -0.3113445667       2.3699040343      -0.8626689105
      0.0000000000       0.0000000000       3.7427889825
Mn Au
1 2
direct
   0.0000000000000000    0.0000000000000000    0.0000000000000000 Mn
   0.6603277800000000    0.6603277800000000    0.3206555600000000 Au
   0.3396722200000000    0.3396722200000000    0.6793444400000000 Au
