K1 Sr3
1.0
      4.9218376000       0.0000000000       0.0000000000
     -0.0000000000       4.9218376000       0.0000000000
      0.0000000000       0.0000000000       4.9218376000
K Sr
1 3
direct
   0.0000000000000000    0.0000000000000000    0.0000000000000000 K
   0.5000000000000000    0.0000000000000000    0.5000000000000000 Sr
   0.0000000000000000    0.5000000000000000    0.5000000000000000 Sr
   0.5000000000000000    0.5000000000000000    0.0000000000000000 Sr
