K3 Nb1
1.0
      4.8215533409       0.0000000000      -3.9462630443
     -1.0822637694       4.6985191021      -3.9462630443
      0.0000000000       0.0000000000       6.2305993800
K Nb
3 1
direct
   0.7500000000000000    0.2500000000000000    0.5000000000000000 K
   0.2500000000000000    0.7500000000000000    0.5000000000000000 K
   0.5000000000000000    0.5000000000000000    0.0000000000000000 K
   0.0000000000000000    0.0000000000000000    0.0000000000000000 Nb
