K3 Nb1
1.0
      4.0179611174       0.0000000000      -3.2885525369
     -0.9018864745       3.9154325851      -3.2885525369
      0.0000000000       0.0000000000       5.1921661500
K Nb
3 1
direct
   0.7500000000000000    0.2500000000000000    0.5000000000000000 K
   0.2500000000000000    0.7500000000000000    0.5000000000000000 K
   0.5000000000000000    0.5000000000000000    0.0000000000000000 K
   0.0000000000000000    0.0000000000000000    0.0000000000000000 Nb
