K3 Nb1
1.0
      4.2858251919       0.0000000000      -3.5077893727
     -0.9620122395       4.1764614241      -3.5077893727
      0.0000000000       0.0000000000       5.5383105600
K Nb
3 1
direct
   0.7500000000000000    0.2500000000000000    0.5000000000000000 K
   0.2500000000000000    0.7500000000000000    0.5000000000000000 K
   0.5000000000000000    0.5000000000000000    0.0000000000000000 K
   0.0000000000000000    0.0000000000000000    0.0000000000000000 Nb
