K3 Nb1
1.0
      4.5536892664       0.0000000000      -3.7270262085
     -1.0221380044       4.4374902631      -3.7270262085
      0.0000000000       0.0000000000       5.8844549700
K Nb
3 1
direct
   0.7500000000000000    0.2500000000000000    0.5000000000000000 K
   0.2500000000000000    0.7500000000000000    0.5000000000000000 K
   0.5000000000000000    0.5000000000000000    0.0000000000000000 K
   0.0000000000000000    0.0000000000000000    0.0000000000000000 Nb
