K3 Nb1
1.0
      5.0894174154       0.0000000000      -4.1654998801
     -1.1423895344       4.9595479411      -4.1654998801
      0.0000000000       0.0000000000       6.5767437900
K Nb
3 1
direct
   0.7500000000000000    0.2500000000000000    0.5000000000000000 K
   0.2500000000000000    0.7500000000000000    0.5000000000000000 K
   0.5000000000000000    0.5000000000000000    0.0000000000000000 K
   0.0000000000000000    0.0000000000000000    0.0000000000000000 Nb
