Li1 Hf1
1.0
      2.2197038625       0.0000000000       0.0000000000
     -1.1098512938       1.9223203018       0.0000000000
      0.0000000000       0.0000000000       4.0969597500
Li Hf
1 1
direct
   0.0000000000000000    0.0000000000000000    0.0000000000000000 Li
   0.3333333333333333    0.6666666666666666    0.5000000000000000 Hf
