Li1 Hf1
1.0
      2.5156643775       0.0000000000       0.0000000000
     -1.2578314663       2.1786296754       0.0000000000
      0.0000000000       0.0000000000       4.6432210500
Li Hf
1 1
direct
   0.0000000000000000    0.0000000000000000    0.0000000000000000 Li
   0.3333333333333333    0.6666666666666666    0.5000000000000000 Hf
