Li3 Zn1
1.0
      3.6046489295       0.0000000000      -2.4955582295
     -0.9895578715       3.4661605739      -2.4955582295
      0.0000000000       0.0000000000       4.3842108505
Li Zn
3 1
direct
   0.7499990000000000    0.2500000000000000    0.4999990000000000 Li
   0.2500000000000000    0.7499990000000000    0.4999990000000000 Li
   0.5000000000000000    0.5000000000000000    0.0000000000000000 Li
   0.0000000000000000    0.0000000000000000    0.0000000000000000 Zn
