Li3 Pu1
1.0
      3.8664422497       0.0000000000      -3.9451401782
     -0.6446476004       3.8123228013      -3.9451401782
      0.0000000000       0.0000000000       5.5239032120
Li Pu
3 1
direct
   0.7500000000000000    0.2500000000000000    0.5000000000000000 Li
   0.2500000000000000    0.7500000000000000    0.5000000000000000 Li
   0.5000000000000000    0.5000000000000000    0.0000000000000000 Li
   0.0000000000000000    0.0000000000000000    0.0000000000000000 Pu
