Li6 W2
1.0
      4.1529676275       0.0000000000       0.0000000000
     -2.0764839387       3.5965753944       0.0000000000
      0.0000000000       0.0000000000       3.2546400000
Li W
6 2
direct
   0.1650340000000000    0.3300670000000000    0.2500000000000000 Li
   0.6699330000000000    0.8349660000000000    0.2500000000000000 Li
   0.1650340000000000    0.8349660000000000    0.2500000000000000 Li
   0.8349660000000000    0.6699330000000000    0.7500000000000000 Li
   0.3300670000000000    0.1650340000000000    0.7500000000000000 Li
   0.8349660000000000    0.1650340000000000    0.7500000000000000 Li
   0.3333333333333333    0.6666666666666666    0.7500000000000000 W
   0.6666666666666666    0.3333333333333333    0.2500000000000000 W
