Nd1 Zn1
1.0
      2.9366125120       0.0000000000       0.0000000000
     -0.0000000000       2.9366125120       0.0000000000
      0.0000000000       0.0000000000       2.9366125120
Nd Zn
1 1
direct
   0.0000000000000000    0.0000000000000000    0.0000000000000000 Nd
   0.5000000000000000    0.5000000000000000    0.5000000000000000 Zn
