Zn6 Mo1
1.0
      3.9695538864       0.0000000000       2.2928276122
      1.3209132368       3.7430953511       2.2922265012
      0.0000000000       0.0000000000       4.5852155455
Zn Mo
6 1
direct
   0.5000007100000000    0.5000007100000000    0.9999984100000000 Zn
   0.5000007100000000    0.9999984100000000    0.5000007100000000 Zn
   0.0000000400000000    0.0000000400000000    0.4999992600000000 Zn
   0.0000000400000000    0.4999992600000000    0.0000000400000000 Zn
   0.9999984100000000    0.5000007100000000    0.5000007100000000 Zn
   0.4999992600000000    0.0000000400000000    0.0000000400000000 Zn
   0.9999998400000000    0.9999998400000000    0.9999998400000000 Mo
