Zn6 Mo1
1.0
      4.2030570562       0.0000000000       2.4276998247
      1.3986140155       3.9632774305       2.4270633542
      0.0000000000       0.0000000000       4.8549341070
Zn Mo
6 1
direct
   0.5000007100000000    0.5000007100000000    0.9999984100000000 Zn
   0.5000007100000000    0.9999984100000000    0.5000007100000000 Zn
   0.0000000400000000    0.0000000400000000    0.4999992600000000 Zn
   0.0000000400000000    0.4999992600000000    0.0000000400000000 Zn
   0.9999984100000000    0.5000007100000000    0.5000007100000000 Zn
   0.4999992600000000    0.0000000400000000    0.0000000400000000 Zn
   0.9999998400000000    0.9999998400000000    0.9999998400000000 Mo
