Zn6 Mo1
1.0
      3.5025475469       0.0000000000       2.0230831872
      1.1655116796       3.3027311921       2.0225527952
      0.0000000000       0.0000000000       4.0457784225
Zn Mo
6 1
direct
   0.5000007100000000    0.5000007100000000    0.9999984100000000 Zn
   0.5000007100000000    0.9999984100000000    0.5000007100000000 Zn
   0.0000000400000000    0.0000000400000000    0.4999992600000000 Zn
   0.0000000400000000    0.4999992600000000    0.0000000400000000 Zn
   0.9999984100000000    0.5000007100000000    0.5000007100000000 Zn
   0.4999992600000000    0.0000000400000000    0.0000000400000000 Zn
   0.9999998400000000    0.9999998400000000    0.9999998400000000 Mo
