Mn2 F8
1.0
      3.7013865948       0.0000000000      -3.0346814444
     -0.8290114855       3.6073539722      -3.0346814444
      0.0000000000       0.0000000000       4.7863926075
Mn F
2 8
direct
   0.0000000000000000    0.5000000000000000    0.5000000000000000 Mn
   0.5000000000000000    0.0000000000000000    0.5000000000000000 Mn
   0.9524110000000000    0.4524110000000000    0.1638870000000000 F
   0.7114770000000000    0.2114770000000000    0.1638870000000000 F
   0.0475890000000000    0.5475890000000000    0.8361130000000000 F
   0.5475890000000000    0.7114770000000000    0.5000000000000000 F
   0.2885230000000000    0.7885230000000000    0.8361130000000000 F
   0.7885230000000000    0.9524110000000000    0.5000000000000000 F
   0.4524110000000000    0.2885230000000000    0.5000000000000000 F
   0.2114770000000000    0.0475890000000000    0.5000000000000000 F
