Mn2 F8
1.0
      4.1949048074       0.0000000000      -3.4393056370
     -0.9395463502       4.0883345018      -3.4393056370
      0.0000000000       0.0000000000       5.4245782885
Mn F
2 8
direct
   0.0000000000000000    0.5000000000000000    0.5000000000000000 Mn
   0.5000000000000000    0.0000000000000000    0.5000000000000000 Mn
   0.9524110000000000    0.4524110000000000    0.1638870000000000 F
   0.7114770000000000    0.2114770000000000    0.1638870000000000 F
   0.0475890000000000    0.5475890000000000    0.8361130000000000 F
   0.5475890000000000    0.7114770000000000    0.5000000000000000 F
   0.2885230000000000    0.7885230000000000    0.8361130000000000 F
   0.7885230000000000    0.9524110000000000    0.5000000000000000 F
   0.4524110000000000    0.2885230000000000    0.5000000000000000 F
   0.2114770000000000    0.0475890000000000    0.5000000000000000 F
