Mg1 Ti3
1.0
      3.5352061000       0.0000000000       0.0000000000
     -0.0000000000       3.5352061000       0.0000000000
      0.0000000000       0.0000000000       3.5352061000
Mg Ti
1 3
direct
   0.0000000000000000    0.0000000000000000    0.0000000000000000 Mg
   0.5000000000000000    0.5000000000000000    0.0000000000000000 Ti
   0.5000000000000000    0.0000000000000000    0.5000000000000000 Ti
   0.0000000000000000    0.5000000000000000    0.5000000000000000 Ti
