Li2 Mg4
1.0
      3.8283745705       0.0000000000       2.0145433235
      1.3899486675       3.5671409495       2.0145433235
      0.0000000000       0.0000000000       4.7880599280
Li Mg
2 4
direct
   0.0876017900000000    0.9123982100000000    0.2500000000000000 Li
   0.9123982100000000    0.0876017900000000    0.7500000000000000 Li
   0.2440373000000000    0.4185486100000000    0.7502714100000000 Mg
   0.5814513900000000    0.7559627000000000    0.7497285900000000 Mg
   0.4185486100000000    0.2440373000000000    0.2502714100000000 Mg
   0.7559627000000000    0.5814513900000000    0.2497285900000000 Mg
