Li2 Te6
1.0
      5.2551516305       0.0000000000       0.0000000000
     -2.6275752473       4.5510951407       0.0000000000
      0.0000000000       0.0000000000       6.5482665500
Li Te
2 6
direct
   0.6666666666666666    0.3333333333333333    0.2500000000000000 Li
   0.3333333333333333    0.6666666666666666    0.7500000000000000 Li
   0.8330650000000001    0.1669350000000000    0.7500000000000000 Te
   0.3338710000000000    0.1669350000000000    0.7500000000000000 Te
   0.8330650000000001    0.6661290000000000    0.7500000000000000 Te
   0.1669350000000000    0.8330650000000001    0.2500000000000000 Te
   0.6661290000000000    0.8330650000000001    0.2500000000000000 Te
   0.1669350000000000    0.3338710000000000    0.2500000000000000 Te
