Li2 Te6
1.0
      5.8734047635       0.0000000000       0.0000000000
     -2.9367017470       5.0865180984       0.0000000000
      0.0000000000       0.0000000000       7.3186508500
Li Te
2 6
direct
   0.6666666666666666    0.3333333333333333    0.2500000000000000 Li
   0.3333333333333333    0.6666666666666666    0.7500000000000000 Li
   0.8330650000000001    0.1669350000000000    0.7500000000000000 Te
   0.3338710000000000    0.1669350000000000    0.7500000000000000 Te
   0.8330650000000001    0.6661290000000000    0.7500000000000000 Te
   0.1669350000000000    0.8330650000000001    0.2500000000000000 Te
   0.6661290000000000    0.8330650000000001    0.2500000000000000 Te
   0.1669350000000000    0.3338710000000000    0.2500000000000000 Te
