K1 Pm1
1.0
      3.5245570190       0.0000000000       0.0000000000
     -1.7628347794       3.0520207853       0.0000017932
      0.0000000000       0.0000000000       6.8769379000
K Pm
1 1
direct
   0.6666666666666666    0.3333333333333333    0.7500010000000000 K
   0.3333333333333333    0.6666666666666666    0.2500000000000000 Pm
