K1 Pm1
1.0
      2.9680480160       0.0000000000       0.0000000000
     -1.4844924458       2.5701227666       0.0000015100
      0.0000000000       0.0000000000       5.7911056000
K Pm
1 1
direct
   0.6666666666666666    0.3333333333333333    0.7500010000000000 K
   0.3333333333333333    0.6666666666666666    0.2500000000000000 Pm
