K1 Pm1
1.0
      2.7825450150       0.0000000000       0.0000000000
     -1.3917116680       2.4094900937       0.0000014157
      0.0000000000       0.0000000000       5.4291615000
K Pm
1 1
direct
   0.6666666666666666    0.3333333333333333    0.7500010000000000 K
   0.3333333333333333    0.6666666666666666    0.2500000000000000 Pm
