K1 Pm1
1.0
      3.3390540180       0.0000000000       0.0000000000
     -1.6700540016       2.8913881124       0.0000016988
      0.0000000000       0.0000000000       6.5149938000
K Pm
1 1
direct
   0.6666666666666666    0.3333333333333333    0.7500010000000000 K
   0.3333333333333333    0.6666666666666666    0.2500000000000000 Pm
