K1 Pm1
1.0
      3.1535510170       0.0000000000       0.0000000000
     -1.5772732237       2.7307554395       0.0000016044
      0.0000000000       0.0000000000       6.1530497000
K Pm
1 1
direct
   0.6666666666666666    0.3333333333333333    0.7500010000000000 K
   0.3333333333333333    0.6666666666666666    0.2500000000000000 Pm
