K1 Ce3
1.0
      4.5981144000       0.0000000000       0.0000000000
     -0.0000000000       4.5981144000       0.0000000000
      0.0000000000       0.0000000000       4.5981144000
K Ce
1 3
direct
   0.0000000000000000    0.0000000000000000    0.0000000000000000 K
   0.0000000000000000    0.5000000000000000    0.5000000000000000 Ce
   0.5000000000000000    0.0000000000000000    0.5000000000000000 Ce
   0.5000000000000000    0.5000000000000000    0.0000000000000000 Ce
