Mg2 Cu2
1.0
      2.9420550380       0.0000000000       0.0000040817
     -0.0000062278       4.1997599609      -0.0108860155
      0.0000000000       0.0000000000       4.1970437790
Mg Cu
2 2
direct
   0.4999898100000000    0.5743095800000000    0.0029868500000000 Mg
   0.5000088300000000    0.0922989600000000    0.4973181500000000 Mg
   0.9999996700000000    0.0685654700000000    0.9975479800000000 Cu
   0.9999996900000000    0.5981589800000000    0.5021460200000000 Cu
