Mg2 Cu2
1.0
      2.4775200320       0.0000000000       0.0000034372
     -0.0000052445       3.5366399671      -0.0091671709
      0.0000000000       0.0000000000       3.5343526560
Mg Cu
2 2
direct
   0.4999898100000000    0.5743095800000000    0.0029868500000000 Mg
   0.5000088300000000    0.0922989600000000    0.4973181500000000 Mg
   0.9999996700000000    0.0685654700000000    0.9975479800000000 Cu
   0.9999996900000000    0.5981589800000000    0.5021460200000000 Cu
