Mg2 Cu2
1.0
      2.3226750300       0.0000000000       0.0000032224
     -0.0000049167       3.3155999692      -0.0085942227
      0.0000000000       0.0000000000       3.3134556150
Mg Cu
2 2
direct
   0.4999898100000000    0.5743095800000000    0.0029868500000000 Mg
   0.5000088300000000    0.0922989600000000    0.4973181500000000 Mg
   0.9999996700000000    0.0685654700000000    0.9975479800000000 Cu
   0.9999996900000000    0.5981589800000000    0.5021460200000000 Cu
