Mg1 Te1
1.0
      3.5625368262       0.0000000000       2.0568311471
      1.1875122705       3.3587912399       2.0568311440
      0.0000000000       0.0000000000       4.1136632010
Mg Te
1 1
direct
   0.0000000000000000    0.0000000000000000    0.0000000000000000 Mg
   0.2500000000000000    0.2500000000000000    0.2500000000000000 Te
