Mg1 Te1
1.0
      2.9687806885       0.0000000000       1.7140259559
      0.9895935588       2.7989926999       1.7140259534
      0.0000000000       0.0000000000       3.4280526675
Mg Te
1 1
direct
   0.0000000000000000    0.0000000000000000    0.0000000000000000 Mg
   0.2500000000000000    0.2500000000000000    0.2500000000000000 Te
