Mg1 Te1
1.0
      3.1666994011       0.0000000000       1.8282943530
      1.0555664627       2.9855922133       1.8282943503
      0.0000000000       0.0000000000       3.6565895120
Mg Te
1 1
direct
   0.0000000000000000    0.0000000000000000    0.0000000000000000 Mg
   0.2500000000000000    0.2500000000000000    0.2500000000000000 Te
