Mg1 Te1
1.0
      3.7604555388       0.0000000000       2.1710995442
      1.2534851744       3.5453907533       2.1710995409
      0.0000000000       0.0000000000       4.3422000455
Mg Te
1 1
direct
   0.0000000000000000    0.0000000000000000    0.0000000000000000 Mg
   0.2500000000000000    0.2500000000000000    0.2500000000000000 Te
