Mg1 Te1
1.0
      3.3646181137       0.0000000000       1.9425627501
      1.1215393666       3.1721917266       1.9425627471
      0.0000000000       0.0000000000       3.8851263565
Mg Te
1 1
direct
   0.0000000000000000    0.0000000000000000    0.0000000000000000 Mg
   0.2500000000000000    0.2500000000000000    0.2500000000000000 Te
