Li6 Sb2
1.0
      3.9714710905       0.0000000000       0.0000000000
     -1.9857346919       3.4393942972       0.0000000000
      0.0000000000       0.0000000000       7.0576852775
Li Sb
6 2
direct
   0.3333333333333333    0.6666666666666666    0.9126306700000000 Li
   0.6666666666666666    0.3333333333333333    0.4126306700000000 Li
   0.0000000000000000    0.0000000000000000    0.2500000000000000 Li
   0.0000000000000000    0.0000000000000000    0.7500000000000000 Li
   0.3333333333333333    0.6666666666666666    0.5873693300000000 Li
   0.6666666666666666    0.3333333333333333    0.0873693300000000 Li
   0.6666666666666666    0.3333333333333333    0.7500000000000000 Sb
   0.3333333333333333    0.6666666666666666    0.2500000000000000 Sb
