Li6 Sb2
1.0
      4.4387029835       0.0000000000       0.0000000000
     -2.2193505380       3.8440289205       0.0000000000
      0.0000000000       0.0000000000       7.8880011925
Li Sb
6 2
direct
   0.3333333333333333    0.6666666666666666    0.9126306700000000 Li
   0.6666666666666666    0.3333333333333333    0.4126306700000000 Li
   0.0000000000000000    0.0000000000000000    0.2500000000000000 Li
   0.0000000000000000    0.0000000000000000    0.7500000000000000 Li
   0.3333333333333333    0.6666666666666666    0.5873693300000000 Li
   0.6666666666666666    0.3333333333333333    0.0873693300000000 Li
   0.6666666666666666    0.3333333333333333    0.7500000000000000 Sb
   0.3333333333333333    0.6666666666666666    0.2500000000000000 Sb
