Mn1 Ir1
1.0
      2.5298015500       0.0000000000       0.0000000000
     -0.0000000000       2.5298015500       0.0000000000
      0.0000000000       0.0000000000       3.4812256000
Mn Ir
1 1
direct
   0.5000000000000000    0.5000000000000000    0.5000000000000000 Mn
   0.0000000000000000    0.0000000000000000    0.0000000000000000 Ir
