Mn1 Ir1
1.0
      2.1303592000       0.0000000000       0.0000000000
     -0.0000000000       2.1303592000       0.0000000000
      0.0000000000       0.0000000000       2.9315584000
Mn Ir
1 1
direct
   0.5000000000000000    0.5000000000000000    0.5000000000000000 Mn
   0.0000000000000000    0.0000000000000000    0.0000000000000000 Ir
