Mn1 Ir1
1.0
      1.9972117500       0.0000000000       0.0000000000
     -0.0000000000       1.9972117500       0.0000000000
      0.0000000000       0.0000000000       2.7483360000
Mn Ir
1 1
direct
   0.5000000000000000    0.5000000000000000    0.5000000000000000 Mn
   0.0000000000000000    0.0000000000000000    0.0000000000000000 Ir
