Cu9 S5
1.0
      3.9130013163       0.0000000000      -1.8858310865
     -1.9477586869       4.3888629402       0.8837123029
      0.0000000000       0.0000000000       4.8918415800
Cu S
9 5
direct
   0.0004340000000000    0.9773920000000000    0.6751370000000000 Cu
   0.4820060000000000    0.0257170000000000    0.9878030000000000 Cu
   0.6493810000000000    0.6979170000000000    0.0961060000000000 Cu
   0.1467550000000000    0.8167730000000000    0.4223920000000000 Cu
   0.1355410000000000    0.4192420000000000    0.5240710000000000 Cu
   0.6993030000000000    0.5843330000000000    0.7641230000000000 Cu
   0.8803180000000000    0.2738090000000000    0.8305230000000000 Cu
   0.2768930000000000    0.3747620000000000    0.2192600000000000 Cu
   0.5913140000000000    0.1272290000000000    0.3885290000000000 Cu
   0.0364970000000000    0.0030360000000000    0.0405320000000000 S
   0.5724020000000000    0.7624470000000000    0.4040880000000000 S
   0.2032640000000000    0.6396960000000000    0.7972010000000000 S
   0.7895500000000000    0.3925040000000000    0.1632360000000000 S
   0.4016220000000000    0.2023610000000000    0.6032970000000000 S
