Co3 Cu1
1.0
      2.7491545614       0.0000000000      -2.4639463872
     -0.5483346334       2.6939153536      -2.4639463872
      0.0000000000       0.0000000000       3.6917316535
Co Cu
3 1
direct
   0.7500000000000000    0.2500000000000000    0.5000000000000000 Co
   0.2500000000000000    0.7500000000000000    0.5000000000000000 Co
   0.5000000000000000    0.5000000000000000    0.0000000000000000 Co
   0.0000000000000000    0.0000000000000000    0.0000000000000000 Cu
