Co3 Cu1
1.0
      2.4257246130       0.0000000000      -2.1740703417
     -0.4838246765       2.3769841355      -2.1740703417
      0.0000000000       0.0000000000       3.2574102825
Co Cu
3 1
direct
   0.7500000000000000    0.2500000000000000    0.5000000000000000 Co
   0.2500000000000000    0.7500000000000000    0.5000000000000000 Co
   0.5000000000000000    0.5000000000000000    0.0000000000000000 Co
   0.0000000000000000    0.0000000000000000    0.0000000000000000 Cu
