Co3 Cu1
1.0
      2.9108695356       0.0000000000      -2.6088844100
     -0.5805896118       2.8523809626      -2.6088844100
      0.0000000000       0.0000000000       3.9088923390
Co Cu
3 1
direct
   0.7500000000000000    0.2500000000000000    0.5000000000000000 Co
   0.2500000000000000    0.7500000000000000    0.5000000000000000 Co
   0.5000000000000000    0.5000000000000000    0.0000000000000000 Co
   0.0000000000000000    0.0000000000000000    0.0000000000000000 Cu
