Co3 Cu1
1.0
      2.5874395872       0.0000000000      -2.3190083644
     -0.5160796550       2.5354497445      -2.3190083644
      0.0000000000       0.0000000000       3.4745709680
Co Cu
3 1
direct
   0.7500000000000000    0.2500000000000000    0.5000000000000000 Co
   0.2500000000000000    0.7500000000000000    0.5000000000000000 Co
   0.5000000000000000    0.5000000000000000    0.0000000000000000 Co
   0.0000000000000000    0.0000000000000000    0.0000000000000000 Cu
