Co3 Cu1
1.0
      3.0725845098       0.0000000000      -2.7538224328
     -0.6128445903       3.0108465716      -2.7538224328
      0.0000000000       0.0000000000       4.1260530245
Co Cu
3 1
direct
   0.7500000000000000    0.2500000000000000    0.5000000000000000 Co
   0.2500000000000000    0.7500000000000000    0.5000000000000000 Co
   0.5000000000000000    0.5000000000000000    0.0000000000000000 Co
   0.0000000000000000    0.0000000000000000    0.0000000000000000 Cu
