Li1 Tb3
1.0
      3.3482270787       0.0000000000      -2.9515889928
     -0.6826786310       3.2778917703      -2.9515889928
      0.0000000000       0.0000000000       4.4634630225
Li Tb
1 3
direct
   0.0000000000000000    0.0000000000000000    0.0000000000000000 Li
   0.7500000000000000    0.2500000000000000    0.5000000000000000 Tb
   0.2500000000000000    0.7500000000000000    0.5000000000000000 Tb
   0.5000000000000000    0.5000000000000000    0.0000000000000000 Tb
