Li1 Tb3
1.0
      4.0178724945       0.0000000000      -3.5419067914
     -0.8192143573       3.9334701243      -3.5419067914
      0.0000000000       0.0000000000       5.3561556270
Li Tb
1 3
direct
   0.0000000000000000    0.0000000000000000    0.0000000000000000 Li
   0.7500000000000000    0.2500000000000000    0.5000000000000000 Tb
   0.2500000000000000    0.7500000000000000    0.5000000000000000 Tb
   0.5000000000000000    0.5000000000000000    0.0000000000000000 Tb
