Li1 Mg1
1.0
      2.7976477680       0.0000000000       0.0000000000
     -1.3988317476       2.4228294979       0.0000000000
      0.0000000000       0.0000000000       4.5229209120
Li Mg
1 1
direct
   0.0000000000000000    0.0000000000000000    0.0000000000000000 Li
   0.6666666666666666    0.3333333333333333    0.5000000000000000 Mg
