Nb3 Cu1
1.0
      3.5697092553       0.0000000000       2.0609725995
      1.1899030851       3.3655541618       2.0609725995
      0.0000000000       0.0000000000       4.1219451990
Nb Cu
3 1
direct
   0.2500000000000000    0.2500000000000000    0.2500000000000000 Nb
   0.7500000000000000    0.7500000000000000    0.7500000000000000 Nb
   0.5000000000000000    0.5000000000000000    0.5000000000000000 Nb
   0.0000000000000000    0.0000000000000000    0.0000000000000000 Cu
