Nb3 Cu1
1.0
      2.9747577128       0.0000000000       1.7174771663
      0.9915859043       2.8046284681       1.7174771663
      0.0000000000       0.0000000000       3.4349543325
Nb Cu
3 1
direct
   0.2500000000000000    0.2500000000000000    0.2500000000000000 Nb
   0.7500000000000000    0.7500000000000000    0.7500000000000000 Nb
   0.5000000000000000    0.5000000000000000    0.5000000000000000 Nb
   0.0000000000000000    0.0000000000000000    0.0000000000000000 Cu
