Nb3 Cu1
1.0
      3.1730748936       0.0000000000       1.8319756440
      1.0576916312       2.9916036993       1.8319756440
      0.0000000000       0.0000000000       3.6639512880
Nb Cu
3 1
direct
   0.2500000000000000    0.2500000000000000    0.2500000000000000 Nb
   0.7500000000000000    0.7500000000000000    0.7500000000000000 Nb
   0.5000000000000000    0.5000000000000000    0.5000000000000000 Nb
   0.0000000000000000    0.0000000000000000    0.0000000000000000 Cu
