Nb3 Cu1
1.0
      3.3713920745       0.0000000000       1.9464741218
      1.1237973582       3.1785789305       1.9464741218
      0.0000000000       0.0000000000       3.8929482435
Nb Cu
3 1
direct
   0.2500000000000000    0.2500000000000000    0.2500000000000000 Nb
   0.7500000000000000    0.7500000000000000    0.7500000000000000 Nb
   0.5000000000000000    0.5000000000000000    0.5000000000000000 Nb
   0.0000000000000000    0.0000000000000000    0.0000000000000000 Cu
