Nb3 Cu1
1.0
      3.7680264362       0.0000000000       2.1754710773
      1.2560088121       3.5525293930       2.1754710773
      0.0000000000       0.0000000000       4.3509421545
Nb Cu
3 1
direct
   0.2500000000000000    0.2500000000000000    0.2500000000000000 Nb
   0.7500000000000000    0.7500000000000000    0.7500000000000000 Nb
   0.5000000000000000    0.5000000000000000    0.5000000000000000 Nb
   0.0000000000000000    0.0000000000000000    0.0000000000000000 Cu
