Li2 Si2
1.0
      3.4287277700       0.0000000000       1.9795769010
      1.1429092567       3.2326355427       1.9795769010
      0.0000000000       0.0000000000       3.9591538020
Li Si
2 2
direct
   0.0000000000000000    0.0000000000000000    0.0000000000000000 Li
   0.2500000000000000    0.2500000000000000    0.2500000000000000 Li
   0.7500000000000000    0.7500000000000000    0.7500000000000000 Si
   0.5000000000000000    0.5000000000000000    0.5000000000000000 Si
