Li2 Si2
1.0
      3.2382428939       0.0000000000       1.8696004065
      1.0794142980       3.0530446792       1.8696004065
      0.0000000000       0.0000000000       3.7392008130
Li Si
2 2
direct
   0.0000000000000000    0.0000000000000000    0.0000000000000000 Li
   0.2500000000000000    0.2500000000000000    0.2500000000000000 Li
   0.7500000000000000    0.7500000000000000    0.7500000000000000 Si
   0.5000000000000000    0.5000000000000000    0.5000000000000000 Si
