Li1 S1
1.0
      2.1040374260       0.0000000000      -2.4429533527
     -0.2900291501       2.0839521544      -2.4429533527
      0.0000000000       0.0000000000       3.2241269475
Li S
1 1
direct
   0.5000000000000000    0.5000000000000000    0.0000000000000000 Li
   0.7500000000000000    0.2500000000000000    0.5000000000000000 S
