K3 Y1
1.0
      4.4801669550       0.0000000000       2.5866255975
      1.4933889850       4.2239419130       2.5866255975
      0.0000000000       0.0000000000       5.1732511950
K Y
3 1
direct
   0.2500000000000000    0.2500000000000000    0.2500000000000000 K
   0.7500000000000000    0.7500000000000000    0.7500000000000000 K
   0.5000000000000000    0.5000000000000000    0.5000000000000000 K
   0.0000000000000000    0.0000000000000000    0.0000000000000000 Y
