K3 Y1
1.0
      5.3762003460       0.0000000000       3.1039507170
      1.7920667820       5.0687302956       3.1039507170
      0.0000000000       0.0000000000       6.2079014340
K Y
3 1
direct
   0.2500000000000000    0.2500000000000000    0.2500000000000000 K
   0.7500000000000000    0.7500000000000000    0.7500000000000000 K
   0.5000000000000000    0.5000000000000000    0.5000000000000000 K
   0.0000000000000000    0.0000000000000000    0.0000000000000000 Y
