K3 Y1
1.0
      4.7788447520       0.0000000000       2.7590673040
      1.5929482507       4.5055380405       2.7590673040
      0.0000000000       0.0000000000       5.5181346080
K Y
3 1
direct
   0.2500000000000000    0.2500000000000000    0.2500000000000000 K
   0.7500000000000000    0.7500000000000000    0.7500000000000000 K
   0.5000000000000000    0.5000000000000000    0.5000000000000000 K
   0.0000000000000000    0.0000000000000000    0.0000000000000000 Y
