K3 Y1
1.0
      5.0775225490       0.0000000000       2.9315090105
      1.6925075163       4.7871341681       2.9315090105
      0.0000000000       0.0000000000       5.8630180210
K Y
3 1
direct
   0.2500000000000000    0.2500000000000000    0.2500000000000000 K
   0.7500000000000000    0.7500000000000000    0.7500000000000000 K
   0.5000000000000000    0.5000000000000000    0.5000000000000000 K
   0.0000000000000000    0.0000000000000000    0.0000000000000000 Y
