K3 Y1
1.0
      5.6748781430       0.0000000000       3.2763924235
      1.8916260477       5.3503264231       3.2763924235
      0.0000000000       0.0000000000       6.5527848470
K Y
3 1
direct
   0.2500000000000000    0.2500000000000000    0.2500000000000000 K
   0.7500000000000000    0.7500000000000000    0.7500000000000000 K
   0.5000000000000000    0.5000000000000000    0.5000000000000000 K
   0.0000000000000000    0.0000000000000000    0.0000000000000000 Y
