Li1 Tl3
1.0
      3.4137326248       0.0000000000      -3.1940078784
     -0.6424700617       3.3527306264      -3.1940078784
      0.0000000000       0.0000000000       4.6749606160
Li Tl
1 3
direct
   0.0000000000000000    0.0000000000000000    0.0000000000000000 Li
   0.7500000000000000    0.2500000000000000    0.5000000000000000 Tl
   0.2500000000000000    0.7500000000000000    0.5000000000000000 Tl
   0.5000000000000000    0.5000000000000000    0.0000000000000000 Tl
