Li1 Tl3
1.0
      3.2003743358       0.0000000000      -2.9943823860
     -0.6023156829       3.1431849623      -2.9943823860
      0.0000000000       0.0000000000       4.3827755775
Li Tl
1 3
direct
   0.0000000000000000    0.0000000000000000    0.0000000000000000 Li
   0.7500000000000000    0.2500000000000000    0.5000000000000000 Tl
   0.2500000000000000    0.7500000000000000    0.5000000000000000 Tl
   0.5000000000000000    0.5000000000000000    0.0000000000000000 Tl
