Fe3 Cu1
1.0
      2.3422356305       0.0000000000       0.0000000000
     -0.7602872564       2.2154076457       0.0000000000
      0.0000000000       0.0000000000       7.7899097500
Fe Cu
3 1
direct
   0.5000000000000000    0.5000000000000000    0.7467060000000000 Fe
   0.0000000000000000    0.0000000000000000    0.5000000000000000 Fe
   0.5000000000000000    0.5000000000000000    0.2532940000000000 Fe
   0.0000000000000000    0.0000000000000000    0.0000000000000000 Cu
