Fe3 Cu1
1.0
      2.2189600710       0.0000000000       0.0000000000
     -0.7202721376       2.0988072433       0.0000000000
      0.0000000000       0.0000000000       7.3799145000
Fe Cu
3 1
direct
   0.5000000000000000    0.5000000000000000    0.7467060000000000 Fe
   0.0000000000000000    0.0000000000000000    0.5000000000000000 Fe
   0.5000000000000000    0.5000000000000000    0.2532940000000000 Fe
   0.0000000000000000    0.0000000000000000    0.0000000000000000 Cu
