Fe3 Cu1
1.0
      1.8491333925       0.0000000000       0.0000000000
     -0.6002267813       1.7490060361       0.0000000000
      0.0000000000       0.0000000000       6.1499287500
Fe Cu
3 1
direct
   0.5000000000000000    0.5000000000000000    0.7467060000000000 Fe
   0.0000000000000000    0.0000000000000000    0.5000000000000000 Fe
   0.5000000000000000    0.5000000000000000    0.2532940000000000 Fe
   0.0000000000000000    0.0000000000000000    0.0000000000000000 Cu
