Fe3 Cu1
1.0
      2.0956845115       0.0000000000       0.0000000000
     -0.6802570188       1.9822068409       0.0000000000
      0.0000000000       0.0000000000       6.9699192500
Fe Cu
3 1
direct
   0.5000000000000000    0.5000000000000000    0.7467060000000000 Fe
   0.0000000000000000    0.0000000000000000    0.5000000000000000 Fe
   0.5000000000000000    0.5000000000000000    0.2532940000000000 Fe
   0.0000000000000000    0.0000000000000000    0.0000000000000000 Cu
