Fe3 Cu1
1.0
      1.9724089520       0.0000000000       0.0000000000
     -0.6402419001       1.8656064385       0.0000000000
      0.0000000000       0.0000000000       6.5599240000
Fe Cu
3 1
direct
   0.5000000000000000    0.5000000000000000    0.7467060000000000 Fe
   0.0000000000000000    0.0000000000000000    0.5000000000000000 Fe
   0.5000000000000000    0.5000000000000000    0.2532940000000000 Fe
   0.0000000000000000    0.0000000000000000    0.0000000000000000 Cu
