Mn1 S1
1.0
      2.8778939112       0.0000000000       1.6615523000
      0.9592979722       2.7133042502       1.6615522970
      0.0000000000       0.0000000000       3.3231045980
Mn S
1 1
direct
   0.0000000000000000    0.0000000000000000    0.0000000000000000 Mn
   0.2500000000000000    0.2500000000000000    0.2500000000000000 S
