Mn1 S1
1.0
      2.5749577100       0.0000000000       1.4866520579
      0.8583192383       2.4276932765       1.4866520552
      0.0000000000       0.0000000000       2.9733041140
Mn S
1 1
direct
   0.0000000000000000    0.0000000000000000    0.0000000000000000 Mn
   0.2500000000000000    0.2500000000000000    0.2500000000000000 S
