Mn1 S1
1.0
      2.2720215089       0.0000000000       1.3117518158
      0.7573405043       2.1420823028       1.3117518134
      0.0000000000       0.0000000000       2.6235036300
Mn S
1 1
direct
   0.0000000000000000    0.0000000000000000    0.0000000000000000 Mn
   0.2500000000000000    0.2500000000000000    0.2500000000000000 S
