Mn1 S1
1.0
      2.4234896095       0.0000000000       1.3992019368
      0.8078298713       2.2848877896       1.3992019343
      0.0000000000       0.0000000000       2.7984038720
Mn S
1 1
direct
   0.0000000000000000    0.0000000000000000    0.0000000000000000 Mn
   0.2500000000000000    0.2500000000000000    0.2500000000000000 S
