Mn1 S1
1.0
      2.7264258106       0.0000000000       1.5741021789
      0.9088086052       2.5704987633       1.5741021761
      0.0000000000       0.0000000000       3.1482043560
Mn S
1 1
direct
   0.0000000000000000    0.0000000000000000    0.0000000000000000 Mn
   0.2500000000000000    0.2500000000000000    0.2500000000000000 S
