K1 P1
1.0
      3.7102972256       0.0000000000       2.1421411020
      1.2367657419       3.4981017713       2.1421411020
      0.0000000000       0.0000000000       4.2842822040
K P
1 1
direct
   0.0000000000000000    0.0000000000000000    0.0000000000000000 K
   0.5000000000000000    0.5000000000000000    0.5000000000000000 P
