K1 P1
1.0
      3.5041696020       0.0000000000       2.0231332630
      1.1680565340       3.3037627840       2.0231332630
      0.0000000000       0.0000000000       4.0462665260
K P
1 1
direct
   0.0000000000000000    0.0000000000000000    0.0000000000000000 K
   0.5000000000000000    0.5000000000000000    0.5000000000000000 P
