K1 P1
1.0
      3.2980419784       0.0000000000       1.9041254240
      1.0993473261       3.1094237967       1.9041254240
      0.0000000000       0.0000000000       3.8082508480
K P
1 1
direct
   0.0000000000000000    0.0000000000000000    0.0000000000000000 K
   0.5000000000000000    0.5000000000000000    0.5000000000000000 P
