K1 P1
1.0
      3.9164248493       0.0000000000       2.2611489410
      1.3054749498       3.6924407586       2.2611489410
      0.0000000000       0.0000000000       4.5222978820
K P
1 1
direct
   0.0000000000000000    0.0000000000000000    0.0000000000000000 K
   0.5000000000000000    0.5000000000000000    0.5000000000000000 P
