K1 P1
1.0
      3.0919143547       0.0000000000       1.7851175850
      1.0306381182       2.9150848094       1.7851175850
      0.0000000000       0.0000000000       3.5702351700
K P
1 1
direct
   0.0000000000000000    0.0000000000000000    0.0000000000000000 K
   0.5000000000000000    0.5000000000000000    0.5000000000000000 P
