K1 Ca3
1.0
      4.1665581704       0.0000000000       2.4055634813
      1.3888527235       3.9282687153       2.4055634813
      0.0000000000       0.0000000000       4.8111269625
K Ca
1 3
direct
   0.0000000000000000    0.0000000000000000    0.0000000000000000 K
   0.2500000000000000    0.2500000000000000    0.2500000000000000 Ca
   0.7500000000000000    0.7500000000000000    0.7500000000000000 Ca
   0.5000000000000000    0.5000000000000000    0.5000000000000000 Ca
