K1 Ca3
1.0
      4.9998698044       0.0000000000       2.8866761775
      1.6666232681       4.7139224583       2.8866761775
      0.0000000000       0.0000000000       5.7733523550
K Ca
1 3
direct
   0.0000000000000000    0.0000000000000000    0.0000000000000000 K
   0.2500000000000000    0.2500000000000000    0.2500000000000000 Ca
   0.7500000000000000    0.7500000000000000    0.7500000000000000 Ca
   0.5000000000000000    0.5000000000000000    0.5000000000000000 Ca
