K1 Ca3
1.0
      5.2776403491       0.0000000000       3.0470470763
      1.7592134497       4.9758070394       3.0470470763
      0.0000000000       0.0000000000       6.0940941525
K Ca
1 3
direct
   0.0000000000000000    0.0000000000000000    0.0000000000000000 K
   0.2500000000000000    0.2500000000000000    0.2500000000000000 Ca
   0.7500000000000000    0.7500000000000000    0.7500000000000000 Ca
   0.5000000000000000    0.5000000000000000    0.5000000000000000 Ca
