K1 Ca3
1.0
      4.7220992597       0.0000000000       2.7263052788
      1.5740330866       4.4520378773       2.7263052788
      0.0000000000       0.0000000000       5.4526105575
K Ca
1 3
direct
   0.0000000000000000    0.0000000000000000    0.0000000000000000 K
   0.2500000000000000    0.2500000000000000    0.2500000000000000 Ca
   0.7500000000000000    0.7500000000000000    0.7500000000000000 Ca
   0.5000000000000000    0.5000000000000000    0.5000000000000000 Ca
