K1 Ca3
1.0
      4.4443287150       0.0000000000       2.5659343800
      1.4814429050       4.1901532963       2.5659343800
      0.0000000000       0.0000000000       5.1318687600
K Ca
1 3
direct
   0.0000000000000000    0.0000000000000000    0.0000000000000000 K
   0.2500000000000000    0.2500000000000000    0.2500000000000000 Ca
   0.7500000000000000    0.7500000000000000    0.7500000000000000 Ca
   0.5000000000000000    0.5000000000000000    0.5000000000000000 Ca
