Y1 Zn12
1.0
      3.9943101729       0.0000000000       1.6290509787
      1.9952611312       5.2874655350       0.8180798816
      0.0000000000       0.0000000000       5.7103065365
Y Zn
1 12
direct
   0.0000000000000000    0.0000000000000000    0.0000000000000000 Y
   0.7168134400000000    0.7828382200000000    0.7828382200000000 Zn
   0.5000000000000000    0.0000000000000000    0.5000000000000000 Zn
   0.0000000000000000    0.5000000000000000    0.0000000000000000 Zn
   0.5000000000000000    0.5000000000000000    0.0000000000000000 Zn
   0.0000000000000000    0.0000000000000000    0.5000000000000000 Zn
   0.3562501600000000    0.6450554900000000    0.6450554900000000 Zn
   0.0000000000000000    0.3548752700000000    0.6451247300000000 Zn
   0.0000000000000000    0.6451247300000000    0.3548752700000000 Zn
   0.6437498400000000    0.3549445100000000    0.3549445100000000 Zn
   0.2831865600000000    0.2171617800000000    0.2171617800000000 Zn
   0.5000000000000000    0.7830912300000000    0.2169087700000000 Zn
   0.5000000000000000    0.2169087700000000    0.7830912300000000 Zn
