Mn4 N1
1.0
      3.1880109920       0.0000000000       0.0000000000
     -0.0000000000       3.1880210960       0.0000000000
      0.0000000000       0.0000000000       3.1879994080
Mn N
4 1
direct
   0.0000000000000000    0.0000000000000000    0.0000000000000000 Mn
   0.5000000000000000    0.5000000000000000    0.0000000000000000 Mn
   0.5000000000000000    0.0000000000000000    0.5000000000000000 Mn
   0.0000000000000000    0.5000000000000000    0.5000000000000000 Mn
   0.5000000000000000    0.5000000000000000    0.5000000000000000 N
