Mn4 N1
1.0
      3.7857630530       0.0000000000       0.0000000000
     -0.0000000000       3.7857750515       0.0000000000
      0.0000000000       0.0000000000       3.7857492970
Mn N
4 1
direct
   0.0000000000000000    0.0000000000000000    0.0000000000000000 Mn
   0.5000000000000000    0.5000000000000000    0.0000000000000000 Mn
   0.5000000000000000    0.0000000000000000    0.5000000000000000 Mn
   0.0000000000000000    0.5000000000000000    0.5000000000000000 Mn
   0.5000000000000000    0.5000000000000000    0.5000000000000000 N
