Mn4 N1
1.0
      2.9887603050       0.0000000000       0.0000000000
     -0.0000000000       2.9887697775       0.0000000000
      0.0000000000       0.0000000000       2.9887494450
Mn N
4 1
direct
   0.0000000000000000    0.0000000000000000    0.0000000000000000 Mn
   0.5000000000000000    0.5000000000000000    0.0000000000000000 Mn
   0.5000000000000000    0.0000000000000000    0.5000000000000000 Mn
   0.0000000000000000    0.5000000000000000    0.5000000000000000 Mn
   0.5000000000000000    0.5000000000000000    0.5000000000000000 N
