Mn4 N1
1.0
      3.5865123660       0.0000000000       0.0000000000
     -0.0000000000       3.5865237330       0.0000000000
      0.0000000000       0.0000000000       3.5864993340
Mn N
4 1
direct
   0.0000000000000000    0.0000000000000000    0.0000000000000000 Mn
   0.5000000000000000    0.5000000000000000    0.0000000000000000 Mn
   0.5000000000000000    0.0000000000000000    0.5000000000000000 Mn
   0.0000000000000000    0.5000000000000000    0.5000000000000000 Mn
   0.5000000000000000    0.5000000000000000    0.5000000000000000 N
