Mn4 N1
1.0
      3.3872616790       0.0000000000       0.0000000000
     -0.0000000000       3.3872724145       0.0000000000
      0.0000000000       0.0000000000       3.3872493710
Mn N
4 1
direct
   0.0000000000000000    0.0000000000000000    0.0000000000000000 Mn
   0.5000000000000000    0.5000000000000000    0.0000000000000000 Mn
   0.5000000000000000    0.0000000000000000    0.5000000000000000 Mn
   0.0000000000000000    0.5000000000000000    0.5000000000000000 Mn
   0.5000000000000000    0.5000000000000000    0.5000000000000000 N
