Li2 B2
1.0
      2.6594653929       0.0000000000       1.5354430605
      0.8864884643       2.5073680182       1.5354430605
      0.0000000000       0.0000000000       3.0708861210
Li B
2 2
direct
   0.5000000000000000    0.5000000000000000    0.5000000000000000 Li
   0.7500000000000000    0.7500000000000000    0.7500000000000000 Li
   0.2500000000000000    0.2500000000000000    0.2500000000000000 B
   0.0000000000000000    0.0000000000000000    0.0000000000000000 B
