Li1 O2
1.0
      2.1597335113       0.0000000000       1.8496733400
      0.8511859412       1.9849260272       1.8496733400
      0.0000000000       0.0000000000       2.8435437975
Li O
1 2
direct
   0.5000000000000000    0.5000000000000000    0.5000000000000000 Li
   0.2765540000000000    0.2765540000000000    0.2765540000000000 O
   0.7234460000000000    0.7234460000000000    0.7234460000000000 O
