Li1 O2
1.0
      2.3037157454       0.0000000000       1.9729848960
      0.9079316706       2.1172544290       1.9729848960
      0.0000000000       0.0000000000       3.0331133840
Li O
1 2
direct
   0.5000000000000000    0.5000000000000000    0.5000000000000000 Li
   0.2765540000000000    0.2765540000000000    0.2765540000000000 O
   0.7234460000000000    0.7234460000000000    0.7234460000000000 O
