Li1 O2
1.0
      2.4476979795       0.0000000000       2.0962964520
      0.9646774000       2.2495828308       2.0962964520
      0.0000000000       0.0000000000       3.2226829705
Li O
1 2
direct
   0.5000000000000000    0.5000000000000000    0.5000000000000000 Li
   0.2765540000000000    0.2765540000000000    0.2765540000000000 O
   0.7234460000000000    0.7234460000000000    0.7234460000000000 O
