Li3 Ce1
1.0
      4.1021587577       0.0000000000       2.3683824630
      1.3673862526       3.8675523667       2.3683824630
      0.0000000000       0.0000000000       4.7367649260
Li Ce
3 1
direct
   0.2500000000000000    0.2500000000000000    0.2500000000000000 Li
   0.7500000000000000    0.7500000000000000    0.7500000000000000 Li
   0.5000000000000000    0.5000000000000000    0.5000000000000000 Li
   0.0000000000000000    0.0000000000000000    0.0000000000000000 Ce
