Li3 Ce1
1.0
      4.3300564664       0.0000000000       2.4999592665
      1.4433521555       4.0824163871       2.4999592665
      0.0000000000       0.0000000000       4.9999185330
Li Ce
3 1
direct
   0.2500000000000000    0.2500000000000000    0.2500000000000000 Li
   0.7500000000000000    0.7500000000000000    0.7500000000000000 Li
   0.5000000000000000    0.5000000000000000    0.5000000000000000 Li
   0.0000000000000000    0.0000000000000000    0.0000000000000000 Ce
