Li3 Ce1
1.0
      3.8742610489       0.0000000000       2.2368056595
      1.2914203496       3.6526883464       2.2368056595
      0.0000000000       0.0000000000       4.4736113190
Li Ce
3 1
direct
   0.2500000000000000    0.2500000000000000    0.2500000000000000 Li
   0.7500000000000000    0.7500000000000000    0.7500000000000000 Li
   0.5000000000000000    0.5000000000000000    0.5000000000000000 Li
   0.0000000000000000    0.0000000000000000    0.0000000000000000 Ce
