Mn1 O2
1.0
      2.4581711184       0.0000000000       3.6305812372
      1.1134769341       2.1915238768       3.6305813007
      0.0000000000       0.0000000000       4.3844870880
Mn O
1 2
direct
   0.0000000000000000    0.0000000000000000    0.0000000000000000 Mn
   0.2643654900000000    0.2643634900000000    0.2643644900000000 O
   0.7356375100000000    0.7356345100000000    0.7356355100000000 O
