Mn1 O2
1.0
      2.1850409942       0.0000000000       3.2271833220
      0.9897572747       1.9480212238       3.2271833784
      0.0000000000       0.0000000000       3.8973218560
Mn O
1 2
direct
   0.0000000000000000    0.0000000000000000    0.0000000000000000 Mn
   0.2643654900000000    0.2643634900000000    0.2643644900000000 O
   0.7356375100000000    0.7356345100000000    0.7356355100000000 O
