Mn1 O2
1.0
      2.5947361806       0.0000000000       3.8322801948
      1.1753367637       2.3132752033       3.8322802619
      0.0000000000       0.0000000000       4.6280697040
Mn O
1 2
direct
   0.0000000000000000    0.0000000000000000    0.0000000000000000 Mn
   0.2643654900000000    0.2643634900000000    0.2643644900000000 O
   0.7356375100000000    0.7356345100000000    0.7356355100000000 O
