Mn1 O2
1.0
      2.0484759320       0.0000000000       3.0254843643
      0.9278974450       1.8262698973       3.0254844173
      0.0000000000       0.0000000000       3.6537392400
Mn O
1 2
direct
   0.0000000000000000    0.0000000000000000    0.0000000000000000 Mn
   0.2643654900000000    0.2643634900000000    0.2643644900000000 O
   0.7356375100000000    0.7356345100000000    0.7356355100000000 O
