Mn1 O2
1.0
      2.3216060563       0.0000000000       3.4288822796
      1.0516171044       2.0697725503       3.4288823396
      0.0000000000       0.0000000000       4.1409044720
Mn O
1 2
direct
   0.0000000000000000    0.0000000000000000    0.0000000000000000 Mn
   0.2643654900000000    0.2643634900000000    0.2643644900000000 O
   0.7356375100000000    0.7356345100000000    0.7356355100000000 O
