K4 Ga6
1.0
      5.1207825959       0.0000000000      -1.9619517283
     -0.7518835152       5.0652823653      -1.9619516115
      0.0000000000       0.0000000000       7.6632771780
K Ga
4 6
direct
   0.3905634600000000    0.3905634600000000    0.7811601800000000 K
   0.2500019700000000    0.7499980300000000    0.5000000000000000 K
   0.6094365400000000    0.6094365400000000    0.2188398200000000 K
   0.7499980300000000    0.2500019700000000    0.5000000000000000 K
   0.0000084700000000    0.2944382100000000    0.9999777100000000 Ga
   0.1386103500000000    0.1386103500000000    0.2771488100000000 Ga
   0.2944382100000000    0.0000084700000000    0.9999777100000000 Ga
   0.9999915300000000    0.7055617900000000    0.0000222900000000 Ga
   0.8613896500000000    0.8613896500000000    0.7228511900000000 Ga
   0.7055617900000000    0.9999915300000000    0.0000222900000000 Ga
