Mn2 Au5
1.0
      3.3258667485       0.0000000000       0.0000000000
     -1.6629338230       3.9038110301      -0.4879175064
      0.0000000000       0.0000000000       5.5846267010
Mn Au
2 5
direct
   0.5771432300000000    0.1542864600000000    0.7190107200000000 Mn
   0.4228567700000000    0.8457135400000000    0.2809892800000000 Mn
   0.8632406000000000    0.7264802100000000    0.5673311800000000 Au
   0.7125968900000000    0.4251937900000000    0.1444511900000000 Au
   0.2874031100000000    0.5748062100000000    0.8555488100000000 Au
   0.1367594000000000    0.2735197900000000    0.4326688200000000 Au
   0.0000000000000000    0.0000000000000000    0.0000000000000000 Au
