Li2 Pd1
1.0
      3.7846045350       0.0000000000       0.0000000000
     -1.8923022698       3.2775634407       0.0000000000
      0.0000000000       0.0000000000       2.4118760430
Li Pd
2 1
direct
   0.3333333333333333    0.6666666666666666    0.5000000000000000 Li
   0.6666666666666666    0.3333333333333333    0.5000000000000000 Li
   0.0000000000000000    0.0000000000000000    0.0000000000000000 Pd
