Li2 Pd1
1.0
      3.3640929200       0.0000000000       0.0000000000
     -1.6820464620       2.9133897250       0.0000000000
      0.0000000000       0.0000000000       2.1438898160
Li Pd
2 1
direct
   0.3333333333333333    0.6666666666666666    0.5000000000000000 Li
   0.6666666666666666    0.3333333333333333    0.5000000000000000 Li
   0.0000000000000000    0.0000000000000000    0.0000000000000000 Pd
