K3 Os1
1.0
      4.8645151507       0.0000000000      -2.6134649178
     -1.7391702964       4.5429939832      -2.6134649178
      0.0000000000       0.0000000000       5.5221106950
K Os
3 1
direct
   0.7500000000000000    0.2500000000000000    0.5000000000000000 K
   0.2500000000000000    0.7500000000000000    0.5000000000000000 K
   0.5000000000000000    0.5000000000000000    0.0000000000000000 K
   0.0000000000000000    0.0000000000000000    0.0000000000000000 Os
