K3 Os1
1.0
      3.8404066979       0.0000000000      -2.0632617772
     -1.3730291813       3.5865741973      -2.0632617772
      0.0000000000       0.0000000000       4.3595610750
K Os
3 1
direct
   0.7500000000000000    0.2500000000000000    0.5000000000000000 K
   0.2500000000000000    0.7500000000000000    0.5000000000000000 K
   0.5000000000000000    0.5000000000000000    0.0000000000000000 K
   0.0000000000000000    0.0000000000000000    0.0000000000000000 Os
