K3 Os1
1.0
      4.6084880375       0.0000000000      -2.4759141326
     -1.6476350176       4.3038890367      -2.4759141326
      0.0000000000       0.0000000000       5.2314732900
K Os
3 1
direct
   0.7500000000000000    0.2500000000000000    0.5000000000000000 K
   0.2500000000000000    0.7500000000000000    0.5000000000000000 K
   0.5000000000000000    0.5000000000000000    0.0000000000000000 K
   0.0000000000000000    0.0000000000000000    0.0000000000000000 Os
