K3 Os1
1.0
      4.3524609243       0.0000000000      -2.3383633475
     -1.5560997388       4.0647840902      -2.3383633475
      0.0000000000       0.0000000000       4.9408358850
K Os
3 1
direct
   0.7500000000000000    0.2500000000000000    0.5000000000000000 K
   0.2500000000000000    0.7500000000000000    0.5000000000000000 K
   0.5000000000000000    0.5000000000000000    0.0000000000000000 K
   0.0000000000000000    0.0000000000000000    0.0000000000000000 Os
