K3 Os1
1.0
      4.0964338111       0.0000000000      -2.2008125624
     -1.4645644601       3.8256791438      -2.2008125624
      0.0000000000       0.0000000000       4.6501984800
K Os
3 1
direct
   0.7500000000000000    0.2500000000000000    0.5000000000000000 K
   0.2500000000000000    0.7500000000000000    0.5000000000000000 K
   0.5000000000000000    0.5000000000000000    0.0000000000000000 K
   0.0000000000000000    0.0000000000000000    0.0000000000000000 Os
