Li2 Dy6
1.0
      5.2502779800       0.0000000000       0.0000000000
     -2.6251394733       4.5468738286       0.0000000000
      0.0000000000       0.0000000000       4.1365215000
Li Dy
2 6
direct
   0.6666666666666666    0.3333333333333333    0.2500000000000000 Li
   0.3333333333333333    0.6666666666666666    0.7500000000000000 Li
   0.8310130000000000    0.1689870000000000    0.7500000000000000 Dy
   0.3379750000000000    0.1689870000000000    0.7500000000000000 Dy
   0.8310130000000000    0.6620250000000000    0.7500000000000000 Dy
   0.1689870000000000    0.8310130000000000    0.2500000000000000 Dy
   0.6620250000000000    0.8310130000000000    0.2500000000000000 Dy
   0.1689870000000000    0.3379750000000000    0.2500000000000000 Dy
