Li4 O4
1.0
      2.6372396055       0.0000000000       0.0000000000
     -1.3186189576       2.2839160007       0.0000000000
      0.0000000000       0.0000000000       6.4344400410
Li O
4 4
direct
   0.0000000000000000    0.0000000000000000    0.0000000000000000 Li
   0.0000000000000000    0.0000000000000000    0.5000000000000000 Li
   0.3333333333333333    0.6666666666666666    0.2500000000000000 Li
   0.6666666666666666    0.3333333333333333    0.7500000000000000 Li
   0.3333333333333333    0.6666666666666666    0.6485688700000000 O
   0.6666666666666666    0.3333333333333333    0.1485688700000000 O
   0.6666666666666666    0.3333333333333333    0.3514311300000000 O
   0.3333333333333333    0.6666666666666666    0.8514311300000000 O
