Li1 U1
1.0
      2.2764512000       0.0000000000       0.0000000000
     -1.1381683932       1.9714947980      -0.0000003504
      0.0000000000       0.0000000000       4.5012792000
Li U
1 1
direct
   0.6666666666666666    0.3333333333333333    0.7500000000000000 Li
   0.3333333333333333    0.6666666666666666    0.2500000000000000 U
