Li1 U1
1.0
      2.1341730000       0.0000000000       0.0000000000
     -1.0670328686       1.8482763731      -0.0000003285
      0.0000000000       0.0000000000       4.2199492500
Li U
1 1
direct
   0.6666666666666666    0.3333333333333333    0.7500000000000000 Li
   0.3333333333333333    0.6666666666666666    0.2500000000000000 U
