Li1 U1
1.0
      2.5610076000       0.0000000000       0.0000000000
     -1.2804394423       2.2179316477      -0.0000003942
      0.0000000000       0.0000000000       5.0639391000
Li U
1 1
direct
   0.6666666666666666    0.3333333333333333    0.7500000000000000 Li
   0.3333333333333333    0.6666666666666666    0.2500000000000000 U
