Mn4 O8
1.0
      4.4308159721       0.0000000000       2.5591008360
      1.4761293849       4.1776989335       2.5578628450
      0.0000000000       0.0000000000       5.1169643370
Mn O
4 8
direct
   0.5000010000000000    0.5000000000000000    0.4999990000000000 Mn
   0.0000000000000000    0.5000010000000000    0.4999990000000000 Mn
   0.5000000000000000    0.5000010000000000    0.0000000000000000 Mn
   0.4999990000000000    0.0000000000000000    0.5000010000000000 Mn
   0.2921387100000000    0.7358330100000000    0.7360955300000001 O
   0.7359317399999999    0.7360965300000000    0.7358320100000000 O
   0.7358330100000000    0.2921407100000000    0.7359317399999999 O
   0.7360955300000001    0.7359317399999999    0.2921407100000000 O
   0.2640672600000000    0.2639054700000000    0.2641669900000000 O
   0.7078602899999999    0.2641659900000000    0.2639044700000000 O
   0.2639034700000000    0.2640672600000000    0.7078602899999999 O
   0.2641659900000000    0.7078602899999999    0.2640692600000000 O
