K1 Ac3
1.0
      4.4998939165       0.0000000000       2.5980149640
      1.4999646388       4.2425406706       2.5980149640
      0.0000000000       0.0000000000       5.1960299280
K Ac
1 3
direct
   0.0000000000000000    0.0000000000000000    0.0000000000000000 K
   0.2500000000000000    0.2500000000000000    0.2500000000000000 Ac
   0.7500000000000000    0.7500000000000000    0.7500000000000000 Ac
   0.5000000000000000    0.5000000000000000    0.5000000000000000 Ac
