K1 Ac3
1.0
      5.3436240258       0.0000000000       3.0851427698
      1.7812080086       5.0380170463       3.0851427698
      0.0000000000       0.0000000000       6.1702855395
K Ac
1 3
direct
   0.0000000000000000    0.0000000000000000    0.0000000000000000 K
   0.2500000000000000    0.2500000000000000    0.2500000000000000 Ac
   0.7500000000000000    0.7500000000000000    0.7500000000000000 Ac
   0.5000000000000000    0.5000000000000000    0.5000000000000000 Ac
