K1 Ac3
1.0
      5.0623806560       0.0000000000       2.9227668345
      1.6874602187       4.7728582544       2.9227668345
      0.0000000000       0.0000000000       5.8455336690
K Ac
1 3
direct
   0.0000000000000000    0.0000000000000000    0.0000000000000000 K
   0.2500000000000000    0.2500000000000000    0.2500000000000000 Ac
   0.7500000000000000    0.7500000000000000    0.7500000000000000 Ac
   0.5000000000000000    0.5000000000000000    0.5000000000000000 Ac
