K1 Ac3
1.0
      4.7811372863       0.0000000000       2.7603908993
      1.5937124288       4.5076994625       2.7603908993
      0.0000000000       0.0000000000       5.5207817985
K Ac
1 3
direct
   0.0000000000000000    0.0000000000000000    0.0000000000000000 K
   0.2500000000000000    0.2500000000000000    0.2500000000000000 Ac
   0.7500000000000000    0.7500000000000000    0.7500000000000000 Ac
   0.5000000000000000    0.5000000000000000    0.5000000000000000 Ac
