K1 Ac3
1.0
      4.2186505467       0.0000000000       2.4356390288
      1.4062168489       3.9773818787       2.4356390288
      0.0000000000       0.0000000000       4.8712780575
K Ac
1 3
direct
   0.0000000000000000    0.0000000000000000    0.0000000000000000 K
   0.2500000000000000    0.2500000000000000    0.2500000000000000 Ac
   0.7500000000000000    0.7500000000000000    0.7500000000000000 Ac
   0.5000000000000000    0.5000000000000000    0.5000000000000000 Ac
