Cu1 O1
1.0
      2.3330214064       0.0000000000       1.3469705370
      0.7776738021       2.1995936761       1.3469705370
      0.0000000000       0.0000000000       2.6939410740
Cu O
1 1
direct
   0.0000000000000000    0.0000000000000000    0.0000000000000000 Cu
   0.5000000000000000    0.5000000000000000    0.5000000000000000 O
