Cu1 O1
1.0
      2.2034091060       0.0000000000       1.2721388405
      0.7344697020       2.0773940275       1.2721388405
      0.0000000000       0.0000000000       2.5442776810
Cu O
1 1
direct
   0.0000000000000000    0.0000000000000000    0.0000000000000000 Cu
   0.5000000000000000    0.5000000000000000    0.5000000000000000 O
