Cu1 O1
1.0
      2.0737968057       0.0000000000       1.1973071440
      0.6912656019       1.9551943788       1.1973071440
      0.0000000000       0.0000000000       2.3946142880
Cu O
1 1
direct
   0.0000000000000000    0.0000000000000000    0.0000000000000000 Cu
   0.5000000000000000    0.5000000000000000    0.5000000000000000 O
