Cu1 O1
1.0
      1.9441845053       0.0000000000       1.1224754475
      0.6480615018       1.8329947301       1.1224754475
      0.0000000000       0.0000000000       2.2449508950
Cu O
1 1
direct
   0.0000000000000000    0.0000000000000000    0.0000000000000000 Cu
   0.5000000000000000    0.5000000000000000    0.5000000000000000 O
