Cu1 O1
1.0
      2.4626337067       0.0000000000       1.4218022335
      0.8208779022       2.3217933248       1.4218022335
      0.0000000000       0.0000000000       2.8436044670
Cu O
1 1
direct
   0.0000000000000000    0.0000000000000000    0.0000000000000000 Cu
   0.5000000000000000    0.5000000000000000    0.5000000000000000 O
