K16 Si16
1.0
      8.4403886432       0.0000000000      -4.4209075874
     -2.3155834076       8.1165407613      -4.4209075874
      0.0000000000       0.0000000000      10.2676430340
K Si
16 16
direct
   0.2500000000000000    0.3929733200000000    0.0000000000000000 K
   0.2500000000000000    0.8929733200000000    0.0000000000000000 K
   0.1070266800000000    0.7500000000000000    0.5000000000000000 K
   0.8929733200000000    0.2500000000000000    0.5000000000000000 K
   0.7500000000000000    0.6070266800000000    0.0000000000000000 K
   0.7500000000000000    0.1070266800000000    0.0000000000000000 K
   0.6070266800000000    0.7500000000000000    0.5000000000000000 K
   0.3929733200000000    0.2500000000000000    0.5000000000000000 K
   0.7533977100000000    0.2466022900000000    0.7500000000000000 K
   0.4966022900000000    0.7466022900000000    0.7500000000000000 K
   0.0033977100000000    0.9966022900000000    0.2500000000000000 K
   0.7466022900000000    0.4966022900000000    0.2500000000000000 K
   0.2466022900000000    0.7533977100000000    0.2500000000000000 K
   0.5033977100000000    0.2533977100000000    0.2500000000000000 K
   0.9966022900000000    0.0033977100000000    0.7500000000000000 K
   0.2533977100000000    0.5033977100000000    0.7500000000000000 K
   0.2714173200000000    0.4850027100000000    0.3483887400000000 Si
   0.5769714300000000    0.9850027099999999    0.3483887400000000 Si
   0.3633870300000000    0.0769714300000000    0.8483887400000000 Si
   0.9850027099999999    0.5769714300000000    0.8483887400000000 Si
   0.7285826800000000    0.5149972900000001    0.6516112600000000 Si
   0.4230285700000000    0.0149972900000000    0.6516112600000000 Si
   0.6366129699999999    0.9230285700000000    0.1516112600000000 Si
   0.0149972900000000    0.4230285700000000    0.1516112600000000 Si
   0.7714173200000000    0.8633870300000001    0.3483887400000000 Si
   0.0769714300000000    0.3633870300000000    0.3483887400000000 Si
   0.8633870300000001    0.7714173200000000    0.8483887400000000 Si
   0.4850027100000000    0.2714173200000000    0.8483887400000000 Si
   0.2285826800000000    0.1366129700000000    0.6516112600000000 Si
   0.9230285700000000    0.6366129699999999    0.6516112600000000 Si
   0.1366129700000000    0.2285826800000000    0.1516112600000000 Si
   0.5149972900000001    0.7285826800000000    0.1516112600000000 Si
