Mn1 Ga4
1.0
      3.3948263822       0.0000000000      -1.2002513844
     -1.6974125668       2.9400066103      -1.2002518264
      0.0000000000       0.0000000000       3.6007572450
Mn Ga
1 4
direct
   0.0000000000000000    0.0000000000000000    0.0000000000000000 Mn
   0.5000000000000000    0.0000000000000000    0.0000000000000000 Ga
   0.0000000000000000    0.5000000000000000    0.0000000000000000 Ga
   0.0000000000000000    0.0000000000000000    0.5000000000000000 Ga
   0.5000000000000000    0.5000000000000000    0.5000000000000000 Ga
