Mn1 Ga4
1.0
      4.3001134174       0.0000000000      -1.5203184202
     -2.1500559180       3.7240083731      -1.5203189801
      0.0000000000       0.0000000000       4.5609591770
Mn Ga
1 4
direct
   0.0000000000000000    0.0000000000000000    0.0000000000000000 Mn
   0.5000000000000000    0.0000000000000000    0.0000000000000000 Ga
   0.0000000000000000    0.5000000000000000    0.0000000000000000 Ga
   0.0000000000000000    0.0000000000000000    0.5000000000000000 Ga
   0.5000000000000000    0.5000000000000000    0.5000000000000000 Ga
