Mn1 Ga4
1.0
      3.6211481410       0.0000000000      -1.2802681434
     -1.8105734046       3.1360070510      -1.2802686148
      0.0000000000       0.0000000000       3.8408077280
Mn Ga
1 4
direct
   0.0000000000000000    0.0000000000000000    0.0000000000000000 Mn
   0.5000000000000000    0.0000000000000000    0.0000000000000000 Ga
   0.0000000000000000    0.5000000000000000    0.0000000000000000 Ga
   0.0000000000000000    0.0000000000000000    0.5000000000000000 Ga
   0.5000000000000000    0.5000000000000000    0.5000000000000000 Ga
