Mn1 Ga4
1.0
      4.0737916586       0.0000000000      -1.4403016613
     -2.0368950802       3.5280079324      -1.4403021916
      0.0000000000       0.0000000000       4.3209086940
Mn Ga
1 4
direct
   0.0000000000000000    0.0000000000000000    0.0000000000000000 Mn
   0.5000000000000000    0.0000000000000000    0.0000000000000000 Ga
   0.0000000000000000    0.5000000000000000    0.0000000000000000 Ga
   0.0000000000000000    0.0000000000000000    0.5000000000000000 Ga
   0.5000000000000000    0.5000000000000000    0.5000000000000000 Ga
