Mn1 Ga4
1.0
      3.8474698998       0.0000000000      -1.3602849023
     -1.9237342424       3.3320074917      -1.3602854032
      0.0000000000       0.0000000000       4.0808582110
Mn Ga
1 4
direct
   0.0000000000000000    0.0000000000000000    0.0000000000000000 Mn
   0.5000000000000000    0.0000000000000000    0.0000000000000000 Ga
   0.0000000000000000    0.5000000000000000    0.0000000000000000 Ga
   0.0000000000000000    0.0000000000000000    0.5000000000000000 Ga
   0.5000000000000000    0.5000000000000000    0.5000000000000000 Ga
