Mn6 As4
1.0
      4.8532523119       0.0000000000       4.0665218026
      3.7263890049       3.1093541109       4.0665218026
      0.0000000000       0.0000000000       8.2670740305
Mn As
6 4
direct
   0.3042720000000000    0.3042720000000000    0.3262060000000000 Mn
   0.6957280000000000    0.6957280000000000    0.6737940000000000 Mn
   0.3927880000000000    0.3927880000000000    0.9095400000000000 Mn
   0.6072120000000000    0.6072120000000000    0.0904600000000000 Mn
   0.5000000000000000    0.5000000000000000    0.5000000000000000 Mn
   0.0000000000000000    0.0000000000000000    0.0000000000000000 Mn
   0.0600470000000000    0.0600470000000000    0.6550510000000000 As
   0.9399530000000000    0.9399530000000000    0.3449490000000000 As
   0.2495390000000000    0.2495390000000000    0.8208040000000000 As
   0.7504610000000000    0.7504610000000000    0.1791960000000000 As
