K4 O8
1.0
      4.3021216000       0.0000000000       0.0000000000
     -0.0000000000       4.2583869083       1.2586143735
      0.0000000000       0.0000000000       6.3279357760
K O
4 8
direct
   0.7426250000000000    0.7056200000000000    0.5566120000000000 K
   0.2426250000000000    0.7943800000000000    0.9433880000000000 K
   0.2573750000000000    0.2943800000000000    0.4433880000000000 K
   0.7573750000000000    0.2056200000000000    0.0566120000000000 K
   0.2467750000000000    0.6557200000000000    0.6171340000000000 O
   0.7467750000000000    0.8442800000000000    0.8828660000000000 O
   0.7532250000000000    0.3442800000000000    0.3828660000000000 O
   0.2532250000000000    0.1557200000000000    0.1171340000000000 O
   0.7170170000000000    0.0499030000000000    0.7412730000000000 O
   0.2170170000000000    0.4500970000000000    0.7587270000000000 O
   0.2829830000000000    0.9500970000000000    0.2587270000000000 O
   0.7829830000000000    0.5499030000000000    0.2412730000000000 O
