Li6 Bi2
1.0
      4.0854876000       0.0000000000       0.0000000000
     -2.0427437994       3.5381360488       0.0000000000
      0.0000000000       0.0000000000       7.2551257000
Li Bi
6 2
direct
   0.3333333333333333    0.6666666666666666    0.9121470000000000 Li
   0.6666666666666666    0.3333333333333333    0.4121470000000000 Li
   0.0000000000000000    0.0000000000000000    0.2500000000000000 Li
   0.0000000000000000    0.0000000000000000    0.7500000000000000 Li
   0.3333333333333333    0.6666666666666666    0.5878530000000000 Li
   0.6666666666666666    0.3333333333333333    0.0878530000000000 Li
   0.6666666666666666    0.3333333333333333    0.7500000000000000 Bi
   0.3333333333333333    0.6666666666666666    0.2500000000000000 Bi
