Li2 B2
1.0
      3.9505516619       0.0000000000      -0.8099286588
     -0.7768721366       2.4840150655      -3.0804190793
      0.0000000000       0.0000000000       4.0327215210
Li B
2 2
direct
   0.5000000000000000    0.0000000000000000    0.5000000000000000 Li
   0.0000000000000000    0.5000000000000000    0.5000000000000000 Li
   0.9729030000000000    0.7500000000000000    0.2229030000000000 B
   0.0270970000000000    0.2500000000000000    0.7770970000000000 B
