Rb3 Li1
1.0
      4.9093762500       0.0000000000       0.0000000000
     -0.0000000000       4.9093762500       0.0000000000
      0.0000000000       0.0000000000       4.9093762500
Rb Li
3 1
direct
   0.0000000000000000    0.5000000000000000    0.5000000000000000 Rb
   0.5000000000000000    0.0000000000000000    0.5000000000000000 Rb
   0.5000000000000000    0.5000000000000000    0.0000000000000000 Rb
   0.0000000000000000    0.0000000000000000    0.0000000000000000 Li
