Li5 Mg1
1.0
      2.6028581850       0.0000000000       0.0000000000
     -1.3014300265       2.2541407714       0.0000000000
      0.0000000000       0.0000000000      13.0244058485
Li Mg
5 1
direct
   0.6666666666666666    0.3333333333333333    0.1697627500000000 Li
   0.0000000000000000    0.0000000000000000    0.3333671700000000 Li
   0.6666666666666666    0.3333333333333333    0.5000000000000000 Li
   0.0000000000000000    0.0000000000000000    0.6666666666666666 Li
   0.6666666666666666    0.3333333333333333    0.8302372500000000 Li
   0.0000000000000000    0.0000000000000000    0.0000000000000000 Mg
