Li5 Mg1
1.0
      2.4497488800       0.0000000000       0.0000000000
     -1.2248753190       2.1215442555       0.0000000000
      0.0000000000       0.0000000000      12.2582643280
Li Mg
5 1
direct
   0.6666666666666666    0.3333333333333333    0.1697627500000000 Li
   0.0000000000000000    0.0000000000000000    0.3333671700000000 Li
   0.6666666666666666    0.3333333333333333    0.5000000000000000 Li
   0.0000000000000000    0.0000000000000000    0.6666666666666666 Li
   0.6666666666666666    0.3333333333333333    0.8302372500000000 Li
   0.0000000000000000    0.0000000000000000    0.0000000000000000 Mg
