Li2 Te6
1.0
      4.6368984975       0.0000000000       0.0000000000
     -2.3184487476       4.0156721829       0.0000000000
      0.0000000000       0.0000000000       5.7778822500
Li Te
2 6
direct
   0.6666666666666666    0.3333333333333333    0.2500000000000000 Li
   0.3333333333333333    0.6666666666666666    0.7500000000000000 Li
   0.8330650000000001    0.1669350000000000    0.7500000000000000 Te
   0.3338710000000000    0.1669350000000000    0.7500000000000000 Te
   0.8330650000000001    0.6661290000000000    0.7500000000000000 Te
   0.1669350000000000    0.8330650000000001    0.2500000000000000 Te
   0.6661290000000000    0.8330650000000001    0.2500000000000000 Te
   0.1669350000000000    0.3338710000000000    0.2500000000000000 Te
