K3 Li1
1.0
      5.3421368857       0.0000000000       3.0842841690
      1.7807122952       5.0366149572       3.0842841690
      0.0000000000       0.0000000000       6.1685683380
K Li
3 1
direct
   0.2500000000000000    0.2500000000000000    0.2500000000000000 K
   0.7500000000000000    0.7500000000000000    0.7500000000000000 K
   0.5000000000000000    0.5000000000000000    0.5000000000000000 K
   0.0000000000000000    0.0000000000000000    0.0000000000000000 Li
