K3 Li1
1.0
      4.7485661206       0.0000000000       2.7415859280
      1.5828553735       4.4769910731       2.7415859280
      0.0000000000       0.0000000000       5.4831718560
K Li
3 1
direct
   0.2500000000000000    0.2500000000000000    0.2500000000000000 K
   0.7500000000000000    0.7500000000000000    0.7500000000000000 K
   0.5000000000000000    0.5000000000000000    0.5000000000000000 K
   0.0000000000000000    0.0000000000000000    0.0000000000000000 Li
