Cu2 Br2
1.0
      3.4685756820       0.0000000000       0.0000000000
     -0.0000000000       3.4685756820       0.0000000000
      0.0000000000       0.0000000000       5.4402997320
Cu Br
2 2
direct
   0.2500000000000000    0.7500000000000000    0.0000000000000000 Cu
   0.7500000000000000    0.2500000000000000    0.0000000000000000 Cu
   0.2500000000000000    0.2500000000000000    0.2642348700000000 Br
   0.7500000000000000    0.7500000000000000    0.7357651300000000 Br
