Li3 Ni1
1.0
      3.3014390978       0.0000000000      -2.9325584469
     -0.6663888775       3.2334851136      -2.9325584469
      0.0000000000       0.0000000000       4.4158124010
Li Ni
3 1
direct
   0.7500000000000000    0.2500000000000000    0.5000000000000000 Li
   0.2500000000000000    0.7500000000000000    0.5000000000000000 Li
   0.5000000000000000    0.5000000000000000    0.0000000000000000 Li
   0.0000000000000000    0.0000000000000000    0.0000000000000000 Ni
