Li3 Ni1
1.0
      2.7801592402       0.0000000000      -2.4695229027
     -0.5611695811       2.7229348325      -2.4695229027
      0.0000000000       0.0000000000       3.7185788640
Li Ni
3 1
direct
   0.7500000000000000    0.2500000000000000    0.5000000000000000 Li
   0.2500000000000000    0.7500000000000000    0.5000000000000000 Li
   0.5000000000000000    0.5000000000000000    0.0000000000000000 Li
   0.0000000000000000    0.0000000000000000    0.0000000000000000 Ni
