Li3 Nb1
1.0
      2.7243161289       0.0000000000      -2.9982495767
     -0.4068877330       2.6937595927      -2.9982495767
      0.0000000000       0.0000000000       4.0510984800
Li Nb
3 1
direct
   0.7500000000000000    0.2500000000000000    0.5000000000000000 Li
   0.2500000000000000    0.7500000000000000    0.5000000000000000 Li
   0.5000000000000000    0.5000000000000000    0.0000000000000000 Li
   0.0000000000000000    0.0000000000000000    0.0000000000000000 Nb
