Li3 Nb1
1.0
      3.2691793547       0.0000000000      -3.5978994920
     -0.4882652796       3.2325115112      -3.5978994920
      0.0000000000       0.0000000000       4.8613181760
Li Nb
3 1
direct
   0.7500000000000000    0.2500000000000000    0.5000000000000000 Li
   0.2500000000000000    0.7500000000000000    0.5000000000000000 Li
   0.5000000000000000    0.5000000000000000    0.0000000000000000 Li
   0.0000000000000000    0.0000000000000000    0.0000000000000000 Nb
