Li3 Nb1
1.0
      2.9059372042       0.0000000000      -3.1981328818
     -0.4340135819       2.8733435655      -3.1981328818
      0.0000000000       0.0000000000       4.3211717120
Li Nb
3 1
direct
   0.7500000000000000    0.2500000000000000    0.5000000000000000 Li
   0.2500000000000000    0.7500000000000000    0.5000000000000000 Li
   0.5000000000000000    0.5000000000000000    0.0000000000000000 Li
   0.0000000000000000    0.0000000000000000    0.0000000000000000 Nb
