Li1 O3
1.0
      3.5153556060       0.0000000000      -0.8220809947
     -0.8902296914       2.4600905177      -2.4877676620
      0.0000000000       0.0000000000       3.6101997450
Li O
1 3
direct
   0.4833700000000000    0.4833700000000000    0.0000000000000000 Li
   0.9851810000000000    0.9851810000000000    0.0000000000000000 O
   0.3518800000000000    0.1256240000000000    0.2262560000000000 O
   0.8993679999999999    0.1256240000000000    0.7737440000000000 O
