Mg3 Sb2
1.0
      3.8866386425       0.0000000000       0.0000000000
     -1.9433201832       3.3659290295       0.0000000000
      0.0000000000       0.0000000000       6.1580398290
Mg Sb
3 2
direct
   0.0000000000000000    0.0000000000000000    0.0000000000000000 Mg
   0.3333333333333333    0.6666666666666666    0.3666155200000000 Mg
   0.6666666666666666    0.3333333333333333    0.6333844800000000 Mg
   0.3333333333333333    0.6666666666666666    0.7718739700000000 Sb
   0.6666666666666666    0.3333333333333333    0.2281260300000000 Sb
