Hf2 Zn1
1.0
      2.3311319608       0.0000000000      -0.6435972693
     -0.1812377477       2.3240759663      -0.6435972693
      0.0000000000       0.0000000000       4.5352000575
Hf Zn
2 1
direct
   0.6587134800000000    0.6587134800000000    0.3172715200000000 Hf
   0.3412865200000000    0.3412865200000000    0.6827284800000000 Hf
   0.0000000000000000    0.0000000000000000    0.0000000000000000 Zn
