Hf2 Zn1
1.0
      2.7973583529       0.0000000000      -0.7723167232
     -0.2174852972       2.7888911596      -0.7723167232
      0.0000000000       0.0000000000       5.4422400690
Hf Zn
2 1
direct
   0.6587134800000000    0.6587134800000000    0.3172715200000000 Hf
   0.3412865200000000    0.3412865200000000    0.6827284800000000 Hf
   0.0000000000000000    0.0000000000000000    0.0000000000000000 Zn
