Hf2 Zn1
1.0
      2.6419495555       0.0000000000      -0.7294102386
     -0.2054027807       2.6339527619      -0.7294102386
      0.0000000000       0.0000000000       5.1398933985
Hf Zn
2 1
direct
   0.6587134800000000    0.6587134800000000    0.3172715200000000 Hf
   0.3412865200000000    0.3412865200000000    0.6827284800000000 Hf
   0.0000000000000000    0.0000000000000000    0.0000000000000000 Zn
