Li3 Nd1
1.0
      4.0419780998       0.0000000000       2.3336371440
      1.3473260333       3.8108134984       2.3336371440
      0.0000000000       0.0000000000       4.6672742880
Li Nd
3 1
direct
   0.2500000000000000    0.2500000000000000    0.2500000000000000 Li
   0.7500000000000000    0.7500000000000000    0.7500000000000000 Li
   0.5000000000000000    0.5000000000000000    0.5000000000000000 Li
   0.0000000000000000    0.0000000000000000    0.0000000000000000 Nd
