Li3 Nd1
1.0
      3.3683150832       0.0000000000       1.9446976200
      1.1227716944       3.1756779153       1.9446976200
      0.0000000000       0.0000000000       3.8893952400
Li Nd
3 1
direct
   0.2500000000000000    0.2500000000000000    0.2500000000000000 Li
   0.7500000000000000    0.7500000000000000    0.7500000000000000 Li
   0.5000000000000000    0.5000000000000000    0.5000000000000000 Li
   0.0000000000000000    0.0000000000000000    0.0000000000000000 Nd
