Be3 Cu1
1.0
      2.5452182400       0.0000000000       1.4694824360
      0.8484060800       2.3996547695       1.4694824360
      0.0000000000       0.0000000000       2.9389648720
Be Cu
3 1
direct
   0.2500000000000000    0.2500000000000000    0.2500000000000000 Be
   0.7500000000000000    0.7500000000000000    0.7500000000000000 Be
   0.5000000000000000    0.5000000000000000    0.5000000000000000 Be
   0.0000000000000000    0.0000000000000000    0.0000000000000000 Cu
