Be3 Cu1
1.0
      2.3861421000       0.0000000000       1.3776397838
      0.7953807000       2.2496763464       1.3776397838
      0.0000000000       0.0000000000       2.7552795675
Be Cu
3 1
direct
   0.2500000000000000    0.2500000000000000    0.2500000000000000 Be
   0.7500000000000000    0.7500000000000000    0.7500000000000000 Be
   0.5000000000000000    0.5000000000000000    0.5000000000000000 Be
   0.0000000000000000    0.0000000000000000    0.0000000000000000 Cu
