Be3 Cu1
1.0
      2.7042943800       0.0000000000       1.5613250883
      0.9014314600       2.5496331925       1.5613250883
      0.0000000000       0.0000000000       3.1226501765
Be Cu
3 1
direct
   0.2500000000000000    0.2500000000000000    0.2500000000000000 Be
   0.7500000000000000    0.7500000000000000    0.7500000000000000 Be
   0.5000000000000000    0.5000000000000000    0.5000000000000000 Be
   0.0000000000000000    0.0000000000000000    0.0000000000000000 Cu
