Be3 Cu1
1.0
      3.0224466600       0.0000000000       1.7450103928
      1.0074822200       2.8495900387       1.7450103928
      0.0000000000       0.0000000000       3.4900207855
Be Cu
3 1
direct
   0.2500000000000000    0.2500000000000000    0.2500000000000000 Be
   0.7500000000000000    0.7500000000000000    0.7500000000000000 Be
   0.5000000000000000    0.5000000000000000    0.5000000000000000 Be
   0.0000000000000000    0.0000000000000000    0.0000000000000000 Cu
