Be3 Cu1
1.0
      2.8633705200       0.0000000000       1.6531677405
      0.9544568400       2.6996116156       1.6531677405
      0.0000000000       0.0000000000       3.3063354810
Be Cu
3 1
direct
   0.2500000000000000    0.2500000000000000    0.2500000000000000 Be
   0.7500000000000000    0.7500000000000000    0.7500000000000000 Be
   0.5000000000000000    0.5000000000000000    0.5000000000000000 Be
   0.0000000000000000    0.0000000000000000    0.0000000000000000 Cu
