Li3 Hg1
1.0
      3.0324401258       0.0000000000      -2.4296503423
     -0.6991618904       2.9507398679      -2.4296503423
      0.0000000000       0.0000000000       3.8857295200
Li Hg
3 1
direct
   0.7500000000000000    0.2500000000000000    0.5000000000000000 Li
   0.2500000000000000    0.7500000000000000    0.5000000000000000 Li
   0.5000010000000000    0.5000010000000000    0.0000000000000000 Li
   0.0000000000000000    0.0000000000000000    0.0000000000000000 Hg
