Li3 Hg1
1.0
      3.4114951416       0.0000000000      -2.7333566351
     -0.7865571267       3.3195823513      -2.7333566351
      0.0000000000       0.0000000000       4.3714457100
Li Hg
3 1
direct
   0.7500000000000000    0.2500000000000000    0.5000000000000000 Li
   0.2500000000000000    0.7500000000000000    0.5000000000000000 Li
   0.5000010000000000    0.5000010000000000    0.0000000000000000 Li
   0.0000000000000000    0.0000000000000000    0.0000000000000000 Hg
