Cu1 Te1
1.0
      2.5757589180       0.0000000000      -1.3070761844
     -1.6680202091       2.3518681429      -0.1714846229
      0.0000000000       0.0000000000       2.8884220875
Cu Te
1 1
direct
   0.7500000000000000    0.5000000000000000    0.2500000000000000 Cu
   0.7500000000000000    0.0000000000000000    0.7500000000000000 Te
