Cu1 Te1
1.0
      2.9191934404       0.0000000000      -1.4813530090
     -1.8904229036       2.6654505620      -0.1943492393
      0.0000000000       0.0000000000       3.2735450325
Cu Te
1 1
direct
   0.7500000000000000    0.5000000000000000    0.2500000000000000 Cu
   0.7500000000000000    0.0000000000000000    0.7500000000000000 Te
