Cu1 Te1
1.0
      3.0909107016       0.0000000000      -1.5684914212
     -2.0016242509       2.8222417715      -0.2057815475
      0.0000000000       0.0000000000       3.4661065050
Cu Te
1 1
direct
   0.7500000000000000    0.5000000000000000    0.2500000000000000 Cu
   0.7500000000000000    0.0000000000000000    0.7500000000000000 Te
