Cu1 Te1
1.0
      2.7474761792       0.0000000000      -1.3942145967
     -1.7792215564       2.5086593525      -0.1829169311
      0.0000000000       0.0000000000       3.0809835600
Cu Te
1 1
direct
   0.7500000000000000    0.5000000000000000    0.2500000000000000 Cu
   0.7500000000000000    0.0000000000000000    0.7500000000000000 Te
