Cu1 Te1
1.0
      3.2626279628       0.0000000000      -1.6556298335
     -2.1128255982       2.9790329811      -0.2172138557
      0.0000000000       0.0000000000       3.6586679775
Cu Te
1 1
direct
   0.7500000000000000    0.5000000000000000    0.2500000000000000 Cu
   0.7500000000000000    0.0000000000000000    0.7500000000000000 Te
