K4 Tl4
1.0
      4.2887736480       0.0000000000       0.0000000000
     -2.1443860092       3.7141874007       0.0000000000
      0.0000000000       0.0000000000      10.0868706320
K Tl
4 4
direct
   0.3333333333333333    0.6666666666666666    0.4064805500000000 K
   0.6666666666666666    0.3333333333333333    0.5935194499999999 K
   0.6666666666666666    0.3333333333333333    0.9064805500000001 K
   0.3333333333333333    0.6666666666666666    0.0935194500000000 K
   0.0000000000000000    0.0000000000000000    0.2500000000000000 Tl
   0.0000000000000000    0.0000000000000000    0.7500000000000000 Tl
   0.3333333333333333    0.6666666666666666    0.7500000000000000 Tl
   0.6666666666666666    0.3333333333333333    0.2500000000000000 Tl
