K4 Tl4
1.0
      4.5568220010       0.0000000000       0.0000000000
     -2.2784101347       3.9463241132       0.0000000000
      0.0000000000       0.0000000000      10.7173000465
K Tl
4 4
direct
   0.3333333333333333    0.6666666666666666    0.4064805500000000 K
   0.6666666666666666    0.3333333333333333    0.5935194499999999 K
   0.6666666666666666    0.3333333333333333    0.9064805500000001 K
   0.3333333333333333    0.6666666666666666    0.0935194500000000 K
   0.0000000000000000    0.0000000000000000    0.2500000000000000 Tl
   0.0000000000000000    0.0000000000000000    0.7500000000000000 Tl
   0.3333333333333333    0.6666666666666666    0.7500000000000000 Tl
   0.6666666666666666    0.3333333333333333    0.2500000000000000 Tl
