Mn2 Se2
1.0
      3.9879792455       0.0000000000       0.0000000000
     -1.9939886216       3.4538855384       0.0000000000
      0.0000000000       0.0000000000       6.4643692210
Mn Se
2 2
direct
   0.6666666666666666    0.3333333333333333    0.4993439400000000 Mn
   0.3333333333333333    0.6666666666666666    0.9993439400000000 Mn
   0.6666666666666666    0.3333333333333333    0.8766560600000000 Se
   0.3333333333333333    0.6666666666666666    0.3766560600000000 Se
