Cu1 Au4
1.0
      2.6161376584       0.0000000000      10.0795484801
      1.2867513362       2.2778163329      10.0795484801
      0.0000000000       0.0000000000      10.4135231610
Cu Au
1 4
direct
   0.0000000000000000    0.0000000000000000    0.0000000000000000 Cu
   0.6062250000000000    0.6062250000000000    0.6062250000000000 Au
   0.2018970000000000    0.2018970000000000    0.2018970000000000 Au
   0.7981030000000000    0.7981030000000000    0.7981030000000000 Au
   0.3937750000000000    0.3937750000000000    0.3937750000000000 Au
