Cu1 Au4
1.0
      2.7614786394       0.0000000000      10.6395233956
      1.3582375216       2.4043616847      10.6395233956
      0.0000000000       0.0000000000      10.9920522255
Cu Au
1 4
direct
   0.0000000000000000    0.0000000000000000    0.0000000000000000 Cu
   0.6062250000000000    0.6062250000000000    0.6062250000000000 Au
   0.2018970000000000    0.2018970000000000    0.2018970000000000 Au
   0.7981030000000000    0.7981030000000000    0.7981030000000000 Au
   0.3937750000000000    0.3937750000000000    0.3937750000000000 Au
