Cu1 Au4
1.0
      2.4707966774       0.0000000000       9.5195735645
      1.2152651509       2.1512709810       9.5195735645
      0.0000000000       0.0000000000       9.8349940965
Cu Au
1 4
direct
   0.0000000000000000    0.0000000000000000    0.0000000000000000 Cu
   0.6062250000000000    0.6062250000000000    0.6062250000000000 Au
   0.2018970000000000    0.2018970000000000    0.2018970000000000 Au
   0.7981030000000000    0.7981030000000000    0.7981030000000000 Au
   0.3937750000000000    0.3937750000000000    0.3937750000000000 Au
