Cu1 Au4
1.0
      2.1801147153       0.0000000000       8.3996237334
      1.0722927802       1.8981802774       8.3996237334
      0.0000000000       0.0000000000       8.6779359675
Cu Au
1 4
direct
   0.0000000000000000    0.0000000000000000    0.0000000000000000 Cu
   0.6062250000000000    0.6062250000000000    0.6062250000000000 Au
   0.2018970000000000    0.2018970000000000    0.2018970000000000 Au
   0.7981030000000000    0.7981030000000000    0.7981030000000000 Au
   0.3937750000000000    0.3937750000000000    0.3937750000000000 Au
