Cu1 Au4
1.0
      2.3254556963       0.0000000000       8.9595986489
      1.1437789655       2.0247256292       8.9595986489
      0.0000000000       0.0000000000       9.2564650320
Cu Au
1 4
direct
   0.0000000000000000    0.0000000000000000    0.0000000000000000 Cu
   0.6062250000000000    0.6062250000000000    0.6062250000000000 Au
   0.2018970000000000    0.2018970000000000    0.2018970000000000 Au
   0.7981030000000000    0.7981030000000000    0.7981030000000000 Au
   0.3937750000000000    0.3937750000000000    0.3937750000000000 Au
