Mn4 F8
1.0
      3.9630022482       0.0000000000      -0.0001187522
     -0.0000112575       3.9629917427      -0.0003419996
      0.0000000000       0.0000000000       3.9453105075
Mn F
4 8
direct
   0.5000000000000000    0.5000390000000000    0.9999749999999999 Mn
   0.0000650000000000    0.0000380000000000    0.0000010000000000 Mn
   0.9999400000000001    0.4999810000000000    0.4999840000000000 Mn
   0.5000120000000000    0.9999630000000000    0.5000370000000000 Mn
   0.2768220000000000    0.7231860000000000    0.7598450000000000 F
   0.7231590000000000    0.2768330000000000    0.7598760000000000 F
   0.7819380000000000    0.7819240000000000    0.7308260000000000 F
   0.2180860000000000    0.2181100000000000    0.7307190000000000 F
   0.7231800000000000    0.7231649999999999    0.2401910000000000 F
   0.7819060000000000    0.2180630000000000    0.2692280000000000 F
   0.2180860000000000    0.7819000000000000    0.2692280000000000 F
   0.2768050000000000    0.2767970000000000    0.2400910000000000 F
