Eu1 Zn5
1.0
      4.8390048270       0.0000000000       0.0000135426
     -2.4194194632       4.1907284438      -0.0000091804
      0.0000000000       0.0000000000       3.7983272400
Eu Zn
1 5
direct
   0.0000000000000000    0.0000000000000000    0.0000000000000000 Eu
   0.0000000000000000    0.5000000000000000    0.5000000000000000 Zn
   0.3333333333333333    0.6666666666666666    0.0000000000000000 Zn
   0.6666666666666666    0.3333333333333333    0.0000000000000000 Zn
   0.5000000000000000    0.0000000000000000    0.5000000000000000 Zn
   0.5000000000000000    0.5000000000000000    0.5000000000000000 Zn
