Eu1 Zn5
1.0
      4.3013376240       0.0000000000       0.0000120379
     -2.1505950784       3.7250919500      -0.0000081604
      0.0000000000       0.0000000000       3.3762908800
Eu Zn
1 5
direct
   0.0000000000000000    0.0000000000000000    0.0000000000000000 Eu
   0.0000000000000000    0.5000000000000000    0.5000000000000000 Zn
   0.3333333333333333    0.6666666666666666    0.0000000000000000 Zn
   0.6666666666666666    0.3333333333333333    0.0000000000000000 Zn
   0.5000000000000000    0.0000000000000000    0.5000000000000000 Zn
   0.5000000000000000    0.5000000000000000    0.5000000000000000 Zn
