Eu1 Zn5
1.0
      4.5701712255       0.0000000000       0.0000127902
     -2.2850072708       3.9579101969      -0.0000086704
      0.0000000000       0.0000000000       3.5873090600
Eu Zn
1 5
direct
   0.0000000000000000    0.0000000000000000    0.0000000000000000 Eu
   0.0000000000000000    0.5000000000000000    0.5000000000000000 Zn
   0.3333333333333333    0.6666666666666666    0.0000000000000000 Zn
   0.6666666666666666    0.3333333333333333    0.0000000000000000 Zn
   0.5000000000000000    0.0000000000000000    0.5000000000000000 Zn
   0.5000000000000000    0.5000000000000000    0.5000000000000000 Zn
