Cu1 Pb3
1.0
      3.2732367444       0.0000000000      -2.7787913982
     -0.7011142883       3.1972671987      -2.7787913982
      0.0000000000       0.0000000000       4.2936884400
Cu Pb
1 3
direct
   0.0000000000000000    0.0000000000000000    0.0000000000000000 Cu
   0.7500000000000000    0.2500000000000000    0.5000000000000000 Pb
   0.2500000000000000    0.7500000000000000    0.5000000000000000 Pb
   0.5000000000000000    0.5000000000000000    0.0000000000000000 Pb
