Cu1 Pb3
1.0
      3.4914525274       0.0000000000      -2.9640441581
     -0.7478552409       3.4104183453      -2.9640441581
      0.0000000000       0.0000000000       4.5799343360
Cu Pb
1 3
direct
   0.0000000000000000    0.0000000000000000    0.0000000000000000 Cu
   0.7500000000000000    0.2500000000000000    0.5000000000000000 Pb
   0.2500000000000000    0.7500000000000000    0.5000000000000000 Pb
   0.5000000000000000    0.5000000000000000    0.0000000000000000 Pb
