Cu1 Pb3
1.0
      4.1460998763       0.0000000000      -3.5198024377
     -0.8880780985       4.0498717850      -3.5198024377
      0.0000000000       0.0000000000       5.4386720240
Cu Pb
1 3
direct
   0.0000000000000000    0.0000000000000000    0.0000000000000000 Cu
   0.7500000000000000    0.2500000000000000    0.5000000000000000 Pb
   0.2500000000000000    0.7500000000000000    0.5000000000000000 Pb
   0.5000000000000000    0.5000000000000000    0.0000000000000000 Pb
