Cu1 Pb3
1.0
      3.7096683104       0.0000000000      -3.1492969180
     -0.7945961934       3.6235694918      -3.1492969180
      0.0000000000       0.0000000000       4.8661802320
Cu Pb
1 3
direct
   0.0000000000000000    0.0000000000000000    0.0000000000000000 Cu
   0.7500000000000000    0.2500000000000000    0.5000000000000000 Pb
   0.2500000000000000    0.7500000000000000    0.5000000000000000 Pb
   0.5000000000000000    0.5000000000000000    0.0000000000000000 Pb
