Cu1 Pb3
1.0
      3.9278840933       0.0000000000      -3.3345496778
     -0.8413371460       3.8367206384      -3.3345496778
      0.0000000000       0.0000000000       5.1524261280
Cu Pb
1 3
direct
   0.0000000000000000    0.0000000000000000    0.0000000000000000 Cu
   0.7500000000000000    0.2500000000000000    0.5000000000000000 Pb
   0.2500000000000000    0.7500000000000000    0.5000000000000000 Pb
   0.5000000000000000    0.5000000000000000    0.0000000000000000 Pb
