Li4 Mg2
1.0
      3.9800801551       0.0000000000       2.0482241000
      1.4283732803       3.7149411588       2.0482241000
      0.0000000000       0.0000000000       5.0263969445
Li Mg
4 2
direct
   0.2500163000000000    0.4181597000000000    0.2466360200000000 Li
   0.5818403000000000    0.7499837000000000    0.2533639800000000 Li
   0.4181597000000000    0.2500163000000000    0.7466360200000000 Li
   0.7499837000000000    0.5818403000000000    0.7533639800000000 Li
   0.0887774500000000    0.9112225500000000    0.7500000000000000 Mg
   0.9112225500000000    0.0887774500000000    0.2500000000000000 Mg
