K3 Tl1
1.0
      4.8463006090       0.0000000000      -4.2592697832
     -0.9920898071       4.7436681385      -4.2592697832
      0.0000000000       0.0000000000       6.4519771140
K Tl
3 1
direct
   0.7500000000000000    0.2500000000000000    0.5000000000000000 K
   0.2500000000000000    0.7500000000000000    0.5000000000000000 K
   0.5000000000000000    0.5000000000000000    0.0000000000000000 K
   0.0000000000000000    0.0000000000000000    0.0000000000000000 Tl
