K3 Tl1
1.0
      5.1155395318       0.0000000000      -4.4958958823
     -1.0472059075       5.0072052573      -4.4958958823
      0.0000000000       0.0000000000       6.8104202870
K Tl
3 1
direct
   0.7500000000000000    0.2500000000000000    0.5000000000000000 K
   0.2500000000000000    0.7500000000000000    0.5000000000000000 K
   0.5000000000000000    0.5000000000000000    0.0000000000000000 K
   0.0000000000000000    0.0000000000000000    0.0000000000000000 Tl
