K3 Tl1
1.0
      4.5770616863       0.0000000000      -4.0226436842
     -0.9369737067       4.4801310197      -4.0226436842
      0.0000000000       0.0000000000       6.0935339410
K Tl
3 1
direct
   0.7500000000000000    0.2500000000000000    0.5000000000000000 K
   0.2500000000000000    0.7500000000000000    0.5000000000000000 K
   0.5000000000000000    0.5000000000000000    0.0000000000000000 K
   0.0000000000000000    0.0000000000000000    0.0000000000000000 Tl
