K3 Tl1
1.0
      4.0385838409       0.0000000000      -3.5493914860
     -0.8267415059       3.9530567820      -3.5493914860
      0.0000000000       0.0000000000       5.3766475950
K Tl
3 1
direct
   0.7500000000000000    0.2500000000000000    0.5000000000000000 K
   0.2500000000000000    0.7500000000000000    0.5000000000000000 K
   0.5000000000000000    0.5000000000000000    0.0000000000000000 K
   0.0000000000000000    0.0000000000000000    0.0000000000000000 Tl
