K3 Tl1
1.0
      4.3078227636       0.0000000000      -3.7860175851
     -0.8818576063       4.2165939008      -3.7860175851
      0.0000000000       0.0000000000       5.7350907680
K Tl
3 1
direct
   0.7500000000000000    0.2500000000000000    0.5000000000000000 K
   0.2500000000000000    0.7500000000000000    0.5000000000000000 K
   0.5000000000000000    0.5000000000000000    0.0000000000000000 K
   0.0000000000000000    0.0000000000000000    0.0000000000000000 Tl
