Mn1 Te1
1.0
      3.5162096466       0.0000000000       2.0300845860
      1.1720698822       3.3151142469       2.0300845860
      0.0000000000       0.0000000000       4.0601691720
Mn Te
1 1
direct
   0.0000000000000000    0.0000000000000000    0.0000000000000000 Mn
   0.7500000000000000    0.7500000000000000    0.7500000000000000 Te
