Mn1 Te1
1.0
      3.1255196859       0.0000000000       1.8045196320
      1.0418398953       2.9467682195       1.8045196320
      0.0000000000       0.0000000000       3.6090392640
Mn Te
1 1
direct
   0.0000000000000000    0.0000000000000000    0.0000000000000000 Mn
   0.7500000000000000    0.7500000000000000    0.7500000000000000 Te
