Mn1 Te1
1.0
      2.9301747055       0.0000000000       1.6917371550
      0.9767249018       2.7625952058       1.6917371550
      0.0000000000       0.0000000000       3.3834743100
Mn Te
1 1
direct
   0.0000000000000000    0.0000000000000000    0.0000000000000000 Mn
   0.7500000000000000    0.7500000000000000    0.7500000000000000 Te
