Mn1 Te1
1.0
      3.3208646662       0.0000000000       1.9173021090
      1.1069548887       3.1309412332       1.9173021090
      0.0000000000       0.0000000000       3.8346042180
Mn Te
1 1
direct
   0.0000000000000000    0.0000000000000000    0.0000000000000000 Mn
   0.7500000000000000    0.7500000000000000    0.7500000000000000 Te
