Mn1 Te1
1.0
      3.7115546270       0.0000000000       2.1428670630
      1.2371848757       3.4992872606       2.1428670630
      0.0000000000       0.0000000000       4.2857341260
Mn Te
1 1
direct
   0.0000000000000000    0.0000000000000000    0.0000000000000000 Mn
   0.7500000000000000    0.7500000000000000    0.7500000000000000 Te
