Cu5 As5
1.0
      3.1558222851       0.0000000000       1.0615323658
      1.0540693767       4.9908755226       2.0880914073
      0.0000000000       0.0000000000       5.2217281040
Cu As
5 5
direct
   0.0000000000000000    0.0000000000000000    0.0000000000000000 Cu
   0.7451179999999999    0.2413080000000000    0.2684560000000000 Cu
   0.2548820000000000    0.7586920000000000    0.7315440000000000 Cu
   0.8908560000000000    0.7854770000000000    0.4328100000000000 Cu
   0.1091440000000000    0.2145230000000000    0.5671900000000000 Cu
   0.5000000000000000    0.5000000000000000    0.5000000000000000 As
   0.8421419999999999    0.4652930000000000    0.8504220000000000 As
   0.1578580000000000    0.5347070000000000    0.1495780000000000 As
   0.6296850000000001    0.0036330000000000    0.7369960000000000 As
   0.3703150000000000    0.9963670000000000    0.2630040000000000 As
