Mn2 F6
1.0
      4.9795999511       0.0000000000       0.0385611201
     -2.1511565757       4.4909844199       0.0385611201
      0.0000000000       0.0000000000       4.5331175555
Mn F
2 6
direct
   0.3301420000000000    0.6698580000000000    0.5000000000000000 Mn
   0.6698580000000000    0.3301420000000000    0.5000000000000000 Mn
   0.3504400000000000    0.9774860000000000    0.2844540000000000 F
   0.9774860000000000    0.3504400000000000    0.2844540000000000 F
   0.6203300000000000    0.6203300000000000    0.2818090000000000 F
   0.3796700000000000    0.3796700000000000    0.7181910000000000 F
   0.0225140000000000    0.6495600000000000    0.7155460000000000 F
   0.6495600000000000    0.0225140000000000    0.7155460000000000 F
