Mn2 F6
1.0
      4.7175157431       0.0000000000       0.0365315874
     -2.0379378086       4.2546168188       0.0365315874
      0.0000000000       0.0000000000       4.2945324210
Mn F
2 6
direct
   0.3301420000000000    0.6698580000000000    0.5000000000000000 Mn
   0.6698580000000000    0.3301420000000000    0.5000000000000000 Mn
   0.3504400000000000    0.9774860000000000    0.2844540000000000 F
   0.9774860000000000    0.3504400000000000    0.2844540000000000 F
   0.6203300000000000    0.6203300000000000    0.2818090000000000 F
   0.3796700000000000    0.3796700000000000    0.7181910000000000 F
   0.0225140000000000    0.6495600000000000    0.7155460000000000 F
   0.6495600000000000    0.0225140000000000    0.7155460000000000 F
