Cu3 N1
1.0
      3.1246749121       0.0000000000      -2.8859025194
     -0.3407212453       2.4290847213      -3.4749795838
      0.0000000000       0.0000000000       4.2534723060
Cu N
3 1
direct
   0.6790720000000000    0.6790720000000000    0.0000000000000000 Cu
   0.0000000000000000    0.0000000000000000    0.0000000000000000 Cu
   0.3209280000000000    0.3209280000000000    0.0000000000000000 Cu
   0.5000000000000000    0.0000000000000000    0.5000000000000000 N
