Cu3 N1
1.0
      2.7774888108       0.0000000000      -2.5652466839
     -0.3028633291       2.1591864190      -3.0888707411
      0.0000000000       0.0000000000       3.7808642720
Cu N
3 1
direct
   0.6790720000000000    0.6790720000000000    0.0000000000000000 Cu
   0.0000000000000000    0.0000000000000000    0.0000000000000000 Cu
   0.3209280000000000    0.3209280000000000    0.0000000000000000 Cu
   0.5000000000000000    0.0000000000000000    0.5000000000000000 N
