Cu3 N1
1.0
      2.6038957601       0.0000000000      -2.4049187662
     -0.2839343711       2.0242372678      -2.8958163198
      0.0000000000       0.0000000000       3.5445602550
Cu N
3 1
direct
   0.6790720000000000    0.6790720000000000    0.0000000000000000 Cu
   0.0000000000000000    0.0000000000000000    0.0000000000000000 Cu
   0.3209280000000000    0.3209280000000000    0.0000000000000000 Cu
   0.5000000000000000    0.0000000000000000    0.5000000000000000 N
