Cu3 N1
1.0
      3.2982679628       0.0000000000      -3.0462304371
     -0.3596502033       2.5640338725      -3.6680340051
      0.0000000000       0.0000000000       4.4897763230
Cu N
3 1
direct
   0.6790720000000000    0.6790720000000000    0.0000000000000000 Cu
   0.0000000000000000    0.0000000000000000    0.0000000000000000 Cu
   0.3209280000000000    0.3209280000000000    0.0000000000000000 Cu
   0.5000000000000000    0.0000000000000000    0.5000000000000000 N
