Cu3 N1
1.0
      2.9510818615       0.0000000000      -2.7255746016
     -0.3217922872       2.2941355702      -3.2819251624
      0.0000000000       0.0000000000       4.0171682890
Cu N
3 1
direct
   0.6790720000000000    0.6790720000000000    0.0000000000000000 Cu
   0.0000000000000000    0.0000000000000000    0.0000000000000000 Cu
   0.3209280000000000    0.3209280000000000    0.0000000000000000 Cu
   0.5000000000000000    0.0000000000000000    0.5000000000000000 N
