Li2 Au6
1.0
      4.4846652720       0.0000000000       0.0000000000
     -2.2423330414       3.8838338190       0.0000000000
      0.0000000000       0.0000000000       3.8498589840
Li Au
2 6
direct
   0.6666666666666666    0.3333333333333333    0.2500000000000000 Li
   0.3333333333333333    0.6666666666666666    0.7500000000000000 Li
   0.8314617200000000    0.1685382800000000    0.7500000000000000 Au
   0.6629214400000000    0.8314617200000000    0.2500000000000000 Au
   0.1685382800000000    0.3370785600000000    0.2500000000000000 Au
   0.1685382800000000    0.8314617200000000    0.2500000000000000 Au
   0.8314617200000000    0.6629214400000000    0.7500000000000000 Au
   0.3370785600000000    0.1685382800000000    0.7500000000000000 Au
