Ca4 Mg8
1.0
      5.1352639880       0.0000000000       0.0000000000
     -0.0000000000       3.4928563075       0.0000000000
      0.0000000000       0.0000000000      16.8983776810
Ca Mg
4 8
direct
   0.5000000000000000    0.5000000000000000    0.3937050500000000 Ca
   0.5000000000000000    0.0000000000000000    0.2112953200000000 Ca
   0.5000000000000000    0.0000000000000000    0.8937050500000000 Ca
   0.5000000000000000    0.5000000000000000    0.7112953200000000 Ca
   0.0000000000000000    0.0000000000000000    0.0119526500000000 Mg
   0.0000000000000000    0.5000000000000000    0.1620246400000000 Mg
   0.0000000000000000    0.0000000000000000    0.3315165100000000 Mg
   0.5000000000000000    0.5000000000000000    0.0561728300000000 Mg
   0.0000000000000000    0.5000000000000000    0.5119526500000000 Mg
   0.0000000000000000    0.0000000000000000    0.6620246400000001 Mg
   0.0000000000000000    0.5000000000000000    0.8315165100000000 Mg
   0.5000000000000000    0.0000000000000000    0.5561728300000000 Mg
