Er2 Zn4
1.0
      3.8430275462       0.0000000000       1.6587864067
      1.7789739612       4.8353444663       1.1596277041
      0.0000000000       0.0000000000       5.2811022405
Er Zn
2 4
direct
   0.4699637800000000    0.2800362200000000    0.7800362199999999 Er
   0.5300362199999999    0.7199637800000001    0.2199637800000000 Er
   0.8340252500000001    0.1217700200000000    0.2101784800000000 Zn
   0.1659747500000000    0.8782299800000000    0.7898215200000001 Zn
   0.8340252500000001    0.7101784799999999    0.6217700200000000 Zn
   0.1659747500000000    0.2898215200000000    0.3782299800000000 Zn
