Al3 Cu1
1.0
      2.3616446155       0.0000000000       0.0000000000
     -0.0000000000       2.3616446155       0.0000000000
      0.0000000000       0.0000000000       6.3863928985
Al Cu
3 1
direct
   0.0000000000000000    0.0000000000000000    0.5000000000000000 Al
   0.5000000000000000    0.5000000000000000    0.7738844900000000 Al
   0.5000000000000000    0.5000000000000000    0.2261155100000000 Al
   0.0000000000000000    0.0000000000000000    0.0000000000000000 Cu
