Tb6 Cu23
1.0
      6.2756188900       0.0000000000       3.6232302555
      2.0918729633       5.9167102311       3.6232302555
      0.0000000000       0.0000000000       7.2464605110
Tb Cu
6 23
direct
   0.7148925200000000    0.2851074800000000    0.2851074800000000 Tb
   0.7148925200000000    0.2851074800000000    0.7148925200000000 Tb
   0.7148925200000000    0.7148925200000000    0.2851074800000000 Tb
   0.2851074800000000    0.7148925200000000    0.7148925200000000 Tb
   0.2851074800000000    0.7148925200000000    0.2851074800000000 Tb
   0.2851074800000000    0.2851074800000000    0.7148925200000000 Tb
   0.0000000000000000    0.0000000000000000    0.0000000000000000 Cu
   0.5000000000000000    0.0000000000000000    0.0000000000000000 Cu
   0.5000000000000000    0.0000000000000000    0.5000000000000000 Cu
   0.5000000000000000    0.5000000000000000    0.0000000000000000 Cu
   0.0000000000000000    0.5000000000000000    0.5000000000000000 Cu
   0.0000000000000000    0.5000000000000000    0.0000000000000000 Cu
   0.0000000000000000    0.0000000000000000    0.5000000000000000 Cu
   0.6307944200000000    0.1230681900000000    0.1230681900000000 Cu
   0.1230681900000000    0.6307944200000000    0.1230681900000000 Cu
   0.1230681900000000    0.1230681900000000    0.6307944200000000 Cu
   0.1230681900000000    0.1230681900000000    0.1230681900000000 Cu
   0.3692055800000000    0.8769318100000000    0.8769318100000000 Cu
   0.8769318100000000    0.3692055800000000    0.8769318100000000 Cu
   0.8769318100000000    0.8769318100000000    0.3692055800000000 Cu
   0.8769318100000000    0.8769318100000000    0.8769318100000000 Cu
   0.0243630600000000    0.3252119800000000    0.3252119800000000 Cu
   0.3252119800000000    0.0243630600000000    0.3252119800000000 Cu
   0.3252119800000000    0.3252119800000000    0.0243630600000000 Cu
   0.3252119800000000    0.3252119800000000    0.3252119800000000 Cu
   0.9756369400000000    0.6747880200000000    0.6747880200000000 Cu
   0.6747880200000000    0.9756369400000000    0.6747880200000000 Cu
   0.6747880200000000    0.6747880200000000    0.9756369400000000 Cu
   0.6747880200000000    0.6747880200000000    0.6747880200000000 Cu
