Li6 Lu2
1.0
      5.1329433920       0.0000000000       0.0000000000
     -2.5664710893       4.4452597239       0.0000000000
      0.0000000000       0.0000000000       4.0028640000
Li Lu
6 2
direct
   0.8470010000000000    0.1529990000000000    0.7500000000000000 Li
   0.3059990000000000    0.1529990000000000    0.7500000000000000 Li
   0.8470010000000000    0.6940010000000000    0.7500000000000000 Li
   0.1529990000000000    0.8470010000000000    0.2500000000000000 Li
   0.6940010000000000    0.8470010000000000    0.2500000000000000 Li
   0.1529990000000000    0.3059990000000000    0.2500000000000000 Li
   0.6666666666666666    0.3333333333333333    0.2500000000000000 Lu
   0.3333333333333333    0.6666666666666666    0.7500000000000000 Lu
