Cu3 N1
1.0
      2.6078259905       0.0000000000       0.0000000000
     -1.3039129826       2.2584435637       0.0000000000
      0.0000000000       0.0000000000       6.2820355500
Cu N
3 1
direct
   0.6666666666666666    0.3333333333333333    0.1951960000000000 Cu
   0.3333333333333333    0.6666666666666666    0.8048040000000000 Cu
   0.0000000000000000    0.0000000000000000    0.5000000000000000 Cu
   0.0000000000000000    0.0000000000000000    0.0000000000000000 N
