Cu3 N1
1.0
      2.3333179915       0.0000000000       0.0000000000
     -1.1666589845       2.0207126623       0.0000000000
      0.0000000000       0.0000000000       5.6207686500
Cu N
3 1
direct
   0.6666666666666666    0.3333333333333333    0.1951960000000000 Cu
   0.3333333333333333    0.6666666666666666    0.8048040000000000 Cu
   0.0000000000000000    0.0000000000000000    0.5000000000000000 Cu
   0.0000000000000000    0.0000000000000000    0.0000000000000000 N
