Cu3 N1
1.0
      2.1960639920       0.0000000000       0.0000000000
     -1.0980319854       1.9018472115       0.0000000000
      0.0000000000       0.0000000000       5.2901352000
Cu N
3 1
direct
   0.6666666666666666    0.3333333333333333    0.1951960000000000 Cu
   0.3333333333333333    0.6666666666666666    0.8048040000000000 Cu
   0.0000000000000000    0.0000000000000000    0.5000000000000000 Cu
   0.0000000000000000    0.0000000000000000    0.0000000000000000 N
