K2 Sn6
1.0
      6.0303348080       0.0000000000       0.0000000000
     -3.0151683410       5.2224225961       0.0000000000
      0.0000000000       0.0000000000       4.3564725040
K Sn
2 6
direct
   0.3333333333333333    0.6666666666666666    0.7500000000000000 K
   0.6666666666666666    0.3333333333333333    0.2500000000000000 K
   0.1346239600000000    0.2692479200000000    0.2500000000000000 Sn
   0.7307520800000000    0.8653760400000000    0.2500000000000000 Sn
   0.1346239600000000    0.8653760400000000    0.2500000000000000 Sn
   0.8653760400000000    0.7307520800000000    0.7500000000000000 Sn
   0.2692479200000000    0.1346239600000000    0.7500000000000000 Sn
   0.8653760400000000    0.1346239600000000    0.7500000000000000 Sn
