K2 Sn6
1.0
      6.4072307335       0.0000000000       0.0000000000
     -3.2036163623       5.5488240083       0.0000000000
      0.0000000000       0.0000000000       4.6287520355
K Sn
2 6
direct
   0.3333333333333333    0.6666666666666666    0.7500000000000000 K
   0.6666666666666666    0.3333333333333333    0.2500000000000000 K
   0.1346239600000000    0.2692479200000000    0.2500000000000000 Sn
   0.7307520800000000    0.8653760400000000    0.2500000000000000 Sn
   0.1346239600000000    0.8653760400000000    0.2500000000000000 Sn
   0.8653760400000000    0.7307520800000000    0.7500000000000000 Sn
   0.2692479200000000    0.1346239600000000    0.7500000000000000 Sn
   0.8653760400000000    0.1346239600000000    0.7500000000000000 Sn
