Ga1 Cu3
1.0
      2.6578367018       0.0000000000      -2.4130559422
     -0.5210307145       2.6062667012      -2.4130552812
      0.0000000000       0.0000000000       3.5898380640
Ga Cu
1 3
direct
   0.0000000000000000    0.0000000000000000    0.0000000000000000 Ga
   0.7500000000000000    0.2500000000000000    0.5000000000000000 Cu
   0.2500000000000000    0.7500000000000000    0.5000000000000000 Cu
   0.5000000000000000    0.5000000000000000    0.0000000000000000 Cu
