Ga1 Cu3
1.0
      3.1561810833       0.0000000000      -2.8655039314
     -0.6187239734       3.0949417077      -2.8655031464
      0.0000000000       0.0000000000       4.2629327010
Ga Cu
1 3
direct
   0.0000000000000000    0.0000000000000000    0.0000000000000000 Ga
   0.7500000000000000    0.2500000000000000    0.5000000000000000 Cu
   0.2500000000000000    0.7500000000000000    0.5000000000000000 Cu
   0.5000000000000000    0.5000000000000000    0.0000000000000000 Cu
