Ga1 Cu3
1.0
      2.4917219079       0.0000000000      -2.2622399458
     -0.4884662948       2.4433750324      -2.2622393261
      0.0000000000       0.0000000000       3.3654731850
Ga Cu
1 3
direct
   0.0000000000000000    0.0000000000000000    0.0000000000000000 Ga
   0.7500000000000000    0.2500000000000000    0.5000000000000000 Cu
   0.2500000000000000    0.7500000000000000    0.5000000000000000 Cu
   0.5000000000000000    0.5000000000000000    0.0000000000000000 Cu
