Ga1 Cu3
1.0
      2.9900662895       0.0000000000      -2.7146879350
     -0.5861595538       2.9320500389      -2.7146871913
      0.0000000000       0.0000000000       4.0385678220
Ga Cu
1 3
direct
   0.0000000000000000    0.0000000000000000    0.0000000000000000 Ga
   0.7500000000000000    0.2500000000000000    0.5000000000000000 Cu
   0.2500000000000000    0.7500000000000000    0.5000000000000000 Cu
   0.5000000000000000    0.5000000000000000    0.0000000000000000 Cu
