Ga1 Cu3
1.0
      2.8239514956       0.0000000000      -2.5638719386
     -0.5535951341       2.7691583701      -2.5638712362
      0.0000000000       0.0000000000       3.8142029430
Ga Cu
1 3
direct
   0.0000000000000000    0.0000000000000000    0.0000000000000000 Ga
   0.7500000000000000    0.2500000000000000    0.5000000000000000 Cu
   0.2500000000000000    0.7500000000000000    0.5000000000000000 Cu
   0.5000000000000000    0.5000000000000000    0.0000000000000000 Cu
