Li1 Al3
1.0
      3.7960451500       0.0000000000       0.0000000000
     -0.0000000000       3.7960451500       0.0000000000
      0.0000000000       0.0000000000       3.7960451500
Li Al
1 3
direct
   0.0000000000000000    0.0000000000000000    0.0000000000000000 Li
   0.5000000000000000    0.5000000000000000    0.0000000000000000 Al
   0.5000000000000000    0.0000000000000000    0.5000000000000000 Al
   0.0000000000000000    0.5000000000000000    0.5000000000000000 Al
