Cu20 Sn6
1.0
      5.8893605440       0.0000000000       0.0000000000
     -2.9446808159       5.1003355291       0.0000000000
      0.0000000000       0.0000000000       6.3477472000
Cu Sn
20 6
direct
   0.6666666666666666    0.3333333333333333    0.5742159999999999 Cu
   0.9723160000000000    0.3310440000000000    0.4135010000000000 Cu
   0.3587280000000000    0.0276840000000000    0.4135010000000000 Cu
   0.6412720000000000    0.9723160000000000    0.9135010000000000 Cu
   0.0000000000000000    0.0000000000000000    0.4880790000000000 Cu
   0.6666666666666666    0.3333333333333333    0.2467450000000000 Cu
   0.0277510000000000    0.6710100000000000    0.5807420000000000 Cu
   0.3333333333333333    0.6666666666666666    0.7467450000000000 Cu
   0.3333333333333333    0.6666666666666666    0.0742160000000000 Cu
   0.3333333333333333    0.6666666666666666    0.4200240000000000 Cu
   0.0276840000000000    0.6689560000000000    0.9135010000000000 Cu
   0.6666666666666666    0.3333333333333333    0.9200240000000000 Cu
   0.6432590000000000    0.9722490000000000    0.5807420000000000 Cu
   0.6689560000000000    0.6412720000000000    0.4135010000000000 Cu
   0.3289900000000000    0.3567410000000000    0.5807420000000000 Cu
   0.3567410000000000    0.0277510000000000    0.0807420000000000 Cu
   0.6710100000000000    0.6432590000000000    0.0807420000000000 Cu
   0.3310440000000000    0.3587280000000000    0.9135010000000000 Cu
   0.9722490000000000    0.3289900000000000    0.0807420000000000 Cu
   0.0000000000000000    0.0000000000000000    0.9880790000000000 Cu
   0.6836490000000000    0.9768900000000000    0.2468020000000000 Sn
   0.0231100000000000    0.7067600000000001    0.2468020000000000 Sn
   0.3163510000000000    0.0231100000000000    0.7468020000000000 Sn
   0.9768900000000000    0.2932400000000000    0.7468020000000000 Sn
   0.2932400000000000    0.3163510000000000    0.2468020000000000 Sn
   0.7067600000000001    0.6836490000000000    0.7468020000000000 Sn
