Li3 Sm1
1.0
      3.5569530484       0.0000000000       2.0536078000
      1.1856510161       3.3535274945       2.0536078000
      0.0000000000       0.0000000000       4.1072156000
Li Sm
3 1
direct
   0.2500000000000000    0.2500000000000000    0.2500000000000000 Li
   0.7500000000000000    0.7500000000000000    0.7500000000000000 Li
   0.5000000000000000    0.5000000000000000    0.5000000000000000 Li
   0.0000000000000000    0.0000000000000000    0.0000000000000000 Sm
