Li3 Sm1
1.0
      4.2238817450       0.0000000000       2.4386592625
      1.4079605817       3.9823138998       2.4386592625
      0.0000000000       0.0000000000       4.8773185250
Li Sm
3 1
direct
   0.2500000000000000    0.2500000000000000    0.2500000000000000 Li
   0.7500000000000000    0.7500000000000000    0.7500000000000000 Li
   0.5000000000000000    0.5000000000000000    0.5000000000000000 Li
   0.0000000000000000    0.0000000000000000    0.0000000000000000 Sm
