Cu1 S2
1.0
      3.4173400797       0.0000000000       0.8777854744
     -1.2482804295       3.1811961885       0.8777854744
      0.0000000000       0.0000000000       4.7285138880
Cu S
1 2
direct
   0.7229460000000000    0.2770540000000000    0.5000000000000000 Cu
   0.9480720000000000    0.9226750000000000    0.2196480000000000 S
   0.0773250000000000    0.0519280000000000    0.7803520000000000 S
