Cu1 S2
1.0
      2.6979000629       0.0000000000       0.6929885324
     -0.9854845496       2.5114706751       0.6929885324
      0.0000000000       0.0000000000       3.7330372800
Cu S
1 2
direct
   0.7229460000000000    0.2770540000000000    0.5000000000000000 Cu
   0.9480720000000000    0.9226750000000000    0.2196480000000000 S
   0.0773250000000000    0.0519280000000000    0.7803520000000000 S
