Cu1 S2
1.0
      2.8777600671       0.0000000000       0.7391877679
     -1.0511835195       2.6789020534       0.7391877679
      0.0000000000       0.0000000000       3.9819064320
Cu S
1 2
direct
   0.7229460000000000    0.2770540000000000    0.5000000000000000 Cu
   0.9480720000000000    0.9226750000000000    0.2196480000000000 S
   0.0773250000000000    0.0519280000000000    0.7803520000000000 S
