Mn1 S2
1.0
      2.9323203921       0.0000000000       5.3828961042
      1.3710439947       2.5920541163       5.3828953779
      0.0000000000       0.0000000000       6.1297687080
Mn S
1 2
direct
   0.0000000000000000    0.0000000000000000    0.0000000000000000 Mn
   0.5999291000000000    0.5999291000000000    0.5999291000000000 S
   0.4000709000000000    0.4000709000000000    0.4000709000000000 S
