Mn1 S2
1.0
      3.0952270806       0.0000000000       5.6819458878
      1.4472131056       2.7360571228       5.6819451211
      0.0000000000       0.0000000000       6.4703114140
Mn S
1 2
direct
   0.0000000000000000    0.0000000000000000    0.0000000000000000 Mn
   0.5999291000000000    0.5999291000000000    0.5999291000000000 S
   0.4000709000000000    0.4000709000000000    0.4000709000000000 S
