Mn1 S2
1.0
      2.6065070152       0.0000000000       4.7847965371
      1.2187057731       2.3040481034       4.7847958915
      0.0000000000       0.0000000000       5.4486832960
Mn S
1 2
direct
   0.0000000000000000    0.0000000000000000    0.0000000000000000 Mn
   0.5999291000000000    0.5999291000000000    0.5999291000000000 S
   0.4000709000000000    0.4000709000000000    0.4000709000000000 S
