Mn1 S2
1.0
      2.7694137037       0.0000000000       5.0838463207
      1.2948748839       2.4480511098       5.0838456347
      0.0000000000       0.0000000000       5.7892260020
Mn S
1 2
direct
   0.0000000000000000    0.0000000000000000    0.0000000000000000 Mn
   0.5999291000000000    0.5999291000000000    0.5999291000000000 S
   0.4000709000000000    0.4000709000000000    0.4000709000000000 S
