Mn1 S2
1.0
      2.4436003268       0.0000000000       4.4857467535
      1.1425366623       2.1600450969       4.4857461483
      0.0000000000       0.0000000000       5.1081405900
Mn S
1 2
direct
   0.0000000000000000    0.0000000000000000    0.0000000000000000 Mn
   0.5999291000000000    0.5999291000000000    0.5999291000000000 S
   0.4000709000000000    0.4000709000000000    0.4000709000000000 S
