Cu1 Cl1
1.0
      2.5042583769       0.0000000000       1.4458342480
      0.8347527923       2.3610374402       1.4458342480
      0.0000000000       0.0000000000       2.8916684960
Cu Cl
1 1
direct
   0.0000000000000000    0.0000000000000000    0.0000000000000000 Cu
   0.5000000000000000    0.5000000000000000    0.5000000000000000 Cl
