Cu1 Cl1
1.0
      2.3477422283       0.0000000000       1.3554696075
      0.7825807428       2.2134726002       1.3554696075
      0.0000000000       0.0000000000       2.7109392150
Cu Cl
1 1
direct
   0.0000000000000000    0.0000000000000000    0.0000000000000000 Cu
   0.5000000000000000    0.5000000000000000    0.5000000000000000 Cl
