Cu1 Cl1
1.0
      2.9738068225       0.0000000000       1.7169281695
      0.9912689408       2.8037319602       1.7169281695
      0.0000000000       0.0000000000       3.4338563390
Cu Cl
1 1
direct
   0.0000000000000000    0.0000000000000000    0.0000000000000000 Cu
   0.5000000000000000    0.5000000000000000    0.5000000000000000 Cl
