Cu1 Cl1
1.0
      2.6607745254       0.0000000000       1.5361988885
      0.8869248418       2.5086022802       1.5361988885
      0.0000000000       0.0000000000       3.0723977770
Cu Cl
1 1
direct
   0.0000000000000000    0.0000000000000000    0.0000000000000000 Cu
   0.5000000000000000    0.5000000000000000    0.5000000000000000 Cl
