Cu1 Cl1
1.0
      2.8172906740       0.0000000000       1.6265635290
      0.9390968913       2.6561671202       1.6265635290
      0.0000000000       0.0000000000       3.2531270580
Cu Cl
1 1
direct
   0.0000000000000000    0.0000000000000000    0.0000000000000000 Cu
   0.5000000000000000    0.5000000000000000    0.5000000000000000 Cl
