Fe1 Cu1
1.0
      2.3309887230       0.0000000000       0.0000000000
     -0.7291488991       2.2140122650       0.0000000000
      0.0000000000       0.0000000000       3.9312282500
Fe Cu
1 1
direct
   0.0000000000000000    0.0000000000000000    0.0000000000000000 Fe
   0.5000000000000000    0.5000000000000000    0.5000000000000000 Cu
