Fe1 Cu1
1.0
      2.2083051060       0.0000000000       0.0000000000
     -0.6907726413       2.0974853037       0.0000000000
      0.0000000000       0.0000000000       3.7243215000
Fe Cu
1 1
direct
   0.0000000000000000    0.0000000000000000    0.0000000000000000 Fe
   0.5000000000000000    0.5000000000000000    0.5000000000000000 Cu
