Fe1 Cu1
1.0
      1.9629378720       0.0000000000       0.0000000000
     -0.6140201256       1.8644313811       0.0000000000
      0.0000000000       0.0000000000       3.3105080000
Fe Cu
1 1
direct
   0.0000000000000000    0.0000000000000000    0.0000000000000000 Fe
   0.5000000000000000    0.5000000000000000    0.5000000000000000 Cu
