Fe1 Cu1
1.0
      1.8402542550       0.0000000000       0.0000000000
     -0.5756438677       1.7479044198       0.0000000000
      0.0000000000       0.0000000000       3.1036012500
Fe Cu
1 1
direct
   0.0000000000000000    0.0000000000000000    0.0000000000000000 Fe
   0.5000000000000000    0.5000000000000000    0.5000000000000000 Cu
