Fe1 Cu1
1.0
      2.0856214890       0.0000000000       0.0000000000
     -0.6523963834       1.9809583424       0.0000000000
      0.0000000000       0.0000000000       3.5174147500
Fe Cu
1 1
direct
   0.0000000000000000    0.0000000000000000    0.0000000000000000 Fe
   0.5000000000000000    0.5000000000000000    0.5000000000000000 Cu
