K3 Ca1
1.0
      4.7430952500       0.0000000000       0.0000000000
     -0.0000000000       4.7430952500       0.0000000000
      0.0000000000       0.0000000000       4.7430952500
K Ca
3 1
direct
   0.0000000000000000    0.5000000000000000    0.5000000000000000 K
   0.5000000000000000    0.0000000000000000    0.5000000000000000 K
   0.5000000000000000    0.5000000000000000    0.0000000000000000 K
   0.0000000000000000    0.0000000000000000    0.0000000000000000 Ca
