Li1 Cd3
1.0
      2.7859806000       0.0000000000       0.0000000000
     -1.3929898865       2.4127302128       0.0000000000
      0.0000000000       0.0000000000       8.7359705370
Li Cd
1 3
direct
   0.3333333333333333    0.6666666666666666    0.0000000000000000 Li
   0.3333333333333333    0.6666666666666666    0.5000000000000000 Cd
   0.0000000000000000    0.0000000000000000    0.2345179300000000 Cd
   0.0000000000000000    0.0000000000000000    0.7654820700000000 Cd
