Li1 Cd3
1.0
      2.4764272000       0.0000000000       0.0000000000
     -1.2382132324       2.1446490780       0.0000000000
      0.0000000000       0.0000000000       7.7653071440
Li Cd
1 3
direct
   0.3333333333333333    0.6666666666666666    0.0000000000000000 Li
   0.3333333333333333    0.6666666666666666    0.5000000000000000 Cd
   0.0000000000000000    0.0000000000000000    0.2345179300000000 Cd
   0.0000000000000000    0.0000000000000000    0.7654820700000000 Cd
