Li1 Cd3
1.0
      2.6312039000       0.0000000000       0.0000000000
     -1.3156015595       2.2786896454       0.0000000000
      0.0000000000       0.0000000000       8.2506388405
Li Cd
1 3
direct
   0.3333333333333333    0.6666666666666666    0.0000000000000000 Li
   0.3333333333333333    0.6666666666666666    0.5000000000000000 Cd
   0.0000000000000000    0.0000000000000000    0.2345179300000000 Cd
   0.0000000000000000    0.0000000000000000    0.7654820700000000 Cd
