Li6 Np2
1.0
      4.8699966450       0.0000000000       0.0000000000
     -2.4349989703       4.2175404369       0.0000000000
      0.0000000000       0.0000000000       3.7239127500
Li Np
6 2
direct
   0.1476320000000000    0.2952640000000000    0.2500000000000000 Li
   0.7047360000000000    0.8523680000000000    0.2500000000000000 Li
   0.1476320000000000    0.8523680000000000    0.2500000000000000 Li
   0.8523680000000000    0.7047360000000000    0.7500000000000000 Li
   0.2952640000000000    0.1476320000000000    0.7500000000000000 Li
   0.8523680000000000    0.1476320000000000    0.7500000000000000 Li
   0.3333333333333333    0.6666666666666666    0.7500000000000000 Np
   0.6666666666666666    0.3333333333333333    0.2500000000000000 Np
