Li6 Np2
1.0
      5.5193295310       0.0000000000       0.0000000000
     -2.7596654996       4.7798791618       0.0000000000
      0.0000000000       0.0000000000       4.2204344500
Li Np
6 2
direct
   0.1476320000000000    0.2952640000000000    0.2500000000000000 Li
   0.7047360000000000    0.8523680000000000    0.2500000000000000 Li
   0.1476320000000000    0.8523680000000000    0.2500000000000000 Li
   0.8523680000000000    0.7047360000000000    0.7500000000000000 Li
   0.2952640000000000    0.1476320000000000    0.7500000000000000 Li
   0.8523680000000000    0.1476320000000000    0.7500000000000000 Li
   0.3333333333333333    0.6666666666666666    0.7500000000000000 Np
   0.6666666666666666    0.3333333333333333    0.2500000000000000 Np
