Mn2 Ge4
1.0
      4.0413704157       0.0000000000      -1.0797076238
     -2.3831350826       3.2639457739      -1.0797076238
      0.0000000000       0.0000000000       4.1831140780
Mn Ge
2 4
direct
   0.7500000000000000    0.7500000000000000    0.0000000000000000 Mn
   0.2500000000000000    0.2500000000000000    0.0000000000000000 Mn
   0.6585503200000000    0.1585503200000000    0.8171016300000000 Ge
   0.1585503200000000    0.3414496800000000    0.5000000000000000 Ge
   0.8414496800000000    0.6585503200000000    0.5000000000000000 Ge
   0.3414496800000000    0.8414496800000000    0.1828983700000000 Ge
