Mn2 Ge4
1.0
      4.2790980872       0.0000000000      -1.1432198369
     -2.5233194993       3.4559425841      -1.1432198369
      0.0000000000       0.0000000000       4.4291796120
Mn Ge
2 4
direct
   0.7500000000000000    0.7500000000000000    0.0000000000000000 Mn
   0.2500000000000000    0.2500000000000000    0.0000000000000000 Mn
   0.6585503200000000    0.1585503200000000    0.8171016300000000 Ge
   0.1585503200000000    0.3414496800000000    0.5000000000000000 Ge
   0.8414496800000000    0.6585503200000000    0.5000000000000000 Ge
   0.3414496800000000    0.8414496800000000    0.1828983700000000 Ge
