Li4 Mg2
1.0
      5.3795752929       0.0000000000       1.5006138172
      4.5733633833       2.8326979536       1.5006138172
      0.0000000000       0.0000000000       6.9257976920
Li Mg
4 2
direct
   0.9989440000000001    0.9989440000000001    0.0014750000000000 Li
   0.2779050000000000    0.2779050000000000    0.9439060000000000 Li
   0.6656750000000000    0.6656750000000000    0.6682560000000000 Li
   0.3333333333333333    0.3333333333333333    0.3343770000000000 Li
   0.9424890000000000    0.9424890000000000    0.6145830000000000 Mg
   0.6150130000000000    0.6150130000000000    0.2707350000000000 Mg
