Li4 Mg2
1.0
      4.2470331260       0.0000000000       1.1846951188
      3.6105500394       2.2363404897       1.1846951188
      0.0000000000       0.0000000000       5.4677350200
Li Mg
4 2
direct
   0.9989440000000001    0.9989440000000001    0.0014750000000000 Li
   0.2779050000000000    0.2779050000000000    0.9439060000000000 Li
   0.6656750000000000    0.6656750000000000    0.6682560000000000 Li
   0.3333333333333333    0.3333333333333333    0.3343770000000000 Li
   0.9424890000000000    0.9424890000000000    0.6145830000000000 Mg
   0.6150130000000000    0.6150130000000000    0.2707350000000000 Mg
