K2 Te6
1.0
      6.1040529540       0.0000000000       0.0000000000
     -3.0520274310       5.2862643734       0.0000000000
      0.0000000000       0.0000000000       5.8034880000
K Te
2 6
direct
   0.3333333333333333    0.6666666666666666    0.7500000000000000 K
   0.6666666666666666    0.3333333333333333    0.2500000000000000 K
   0.8239560000000000    0.1760440000000000    0.7500000000000000 Te
   0.3520880000000000    0.1760440000000000    0.7500000000000000 Te
   0.8239560000000000    0.6479120000000000    0.7500000000000000 Te
   0.1760440000000000    0.8239560000000000    0.2500000000000000 Te
   0.6479120000000000    0.8239560000000000    0.2500000000000000 Te
   0.1760440000000000    0.3520880000000000    0.2500000000000000 Te
