Ga2 Cu4
1.0
      3.5275840478       0.0000000000      -1.7823540035
     -0.8678975264       2.8997807838      -2.5413894423
      0.0000000000       0.0000000000       3.9522949040
Ga Cu
2 4
direct
   0.2440440000000000    0.4940440000000000    0.7500000000000000 Ga
   0.7559560000000000    0.5059560000000000    0.2500000000000000 Ga
   0.3374060000000000    0.8342060000000000    0.5032000000000000 Cu
   0.6625940000000000    0.1657940000000000    0.4968000000000000 Cu
   0.1689950000000000    0.1657940000000000    0.0032000000000000 Cu
   0.8310050000000000    0.8342060000000000    0.9968000000000000 Cu
