Sc1 Cu3
1.0
      2.8160127036       0.0000000000      -2.3680178917
     -0.6106249779       2.7490115829      -2.3680178917
      0.0000000000       0.0000000000       3.6793255200
Sc Cu
1 3
direct
   0.0000000000000000    0.0000000000000000    0.0000000000000000 Sc
   0.7500000000000000    0.2500000000000000    0.5000000000000000 Cu
   0.2500000000000000    0.7500000000000000    0.5000000000000000 Cu
   0.4999990000000000    0.4999990000000000    0.0000000000000000 Cu
