Sc1 Cu3
1.0
      3.3440150855       0.0000000000      -2.8120212464
     -0.7251171613       3.2644512547      -2.8120212464
      0.0000000000       0.0000000000       4.3691990550
Sc Cu
1 3
direct
   0.0000000000000000    0.0000000000000000    0.0000000000000000 Sc
   0.7500000000000000    0.2500000000000000    0.5000000000000000 Cu
   0.2500000000000000    0.7500000000000000    0.5000000000000000 Cu
   0.4999990000000000    0.4999990000000000    0.0000000000000000 Cu
