Sc1 Cu3
1.0
      3.1680142915       0.0000000000      -2.6640201282
     -0.6869531001       3.0926380308      -2.6640201282
      0.0000000000       0.0000000000       4.1392412100
Sc Cu
1 3
direct
   0.0000000000000000    0.0000000000000000    0.0000000000000000 Sc
   0.7500000000000000    0.2500000000000000    0.5000000000000000 Cu
   0.2500000000000000    0.7500000000000000    0.5000000000000000 Cu
   0.4999990000000000    0.4999990000000000    0.0000000000000000 Cu
