Sc1 Cu3
1.0
      2.9920134976       0.0000000000      -2.5160190099
     -0.6487890390       2.9208248069      -2.5160190099
      0.0000000000       0.0000000000       3.9092833650
Sc Cu
1 3
direct
   0.0000000000000000    0.0000000000000000    0.0000000000000000 Sc
   0.7500000000000000    0.2500000000000000    0.5000000000000000 Cu
   0.2500000000000000    0.7500000000000000    0.5000000000000000 Cu
   0.4999990000000000    0.4999990000000000    0.0000000000000000 Cu
