Li3 Tc1
1.0
      3.4196571819       0.0000000000       1.9743399945
      1.1398857273       3.2240837102       1.9743399945
      0.0000000000       0.0000000000       3.9486799890
Li Tc
3 1
direct
   0.2500000000000000    0.2500000000000000    0.2500000000000000 Li
   0.7500000000000000    0.7500000000000000    0.7500000000000000 Li
   0.5000000000000000    0.5000000000000000    0.5000000000000000 Li
   0.0000000000000000    0.0000000000000000    0.0000000000000000 Tc
