Li3 Tc1
1.0
      3.2296762273       0.0000000000       1.8646544393
      1.0765587424       3.0449679485       1.8646544393
      0.0000000000       0.0000000000       3.7293088785
Li Tc
3 1
direct
   0.2500000000000000    0.2500000000000000    0.2500000000000000 Li
   0.7500000000000000    0.7500000000000000    0.7500000000000000 Li
   0.5000000000000000    0.5000000000000000    0.5000000000000000 Li
   0.0000000000000000    0.0000000000000000    0.0000000000000000 Tc
