In2 Cu4
1.0
      4.2320119490       0.0000000000       0.0000000000
     -2.1160054250       3.6650301742       0.0000000000
      0.0000000000       0.0000000000       5.0998109000
In Cu
2 4
direct
   0.3333333333333333    0.6666666666666666    0.2500000000000000 In
   0.6666666666666666    0.3333333333333333    0.7500000000000000 In
   0.0000000000000000    0.0000000000000000    0.0000000000000000 Cu
   0.0000000000000000    0.0000000000000000    0.5000000000000000 Cu
   0.3333333333333333    0.6666666666666666    0.7500000000000000 Cu
   0.6666666666666666    0.3333333333333333    0.2500000000000000 Cu
