Li3 N2
1.0
      2.9942015000       0.0000000000       0.0000000000
     -0.0000000000       2.9942015000       0.0000000000
      0.0000000000       0.0000000000       3.9777365000
Li N
3 2
direct
   0.0000000000000000    0.0000000000000000    0.0000000000000000 Li
   0.5000000000000000    0.5000000000000000    0.0000000000000000 Li
   0.0000000000000000    0.0000000000000000    0.5000000000000000 Li
   0.5000000000000000    0.0000000000000000    0.7810830000000000 N
   0.0000000000000000    0.5000000000000000    0.2189170000000000 N
