Mn3 Ga1
1.0
      3.3508752052       0.0000000000       1.9346287018
      1.1169584017       3.1592354407       1.9346287018
      0.0000000000       0.0000000000       3.8692574035
Mn Ga
3 1
direct
   0.7500000000000000    0.7500000000000000    0.7500000000000000 Mn
   0.2500000000000000    0.2500000000000000    0.2500000000000000 Mn
   0.5000000000000000    0.5000000000000000    0.5000000000000000 Mn
   0.0000000000000000    0.0000000000000000    0.0000000000000000 Ga
