Mn3 Ga1
1.0
      2.9981514994       0.0000000000       1.7309835753
      0.9993838331       2.8266843417       1.7309835753
      0.0000000000       0.0000000000       3.4619671505
Mn Ga
3 1
direct
   0.7500000000000000    0.7500000000000000    0.7500000000000000 Mn
   0.2500000000000000    0.2500000000000000    0.2500000000000000 Mn
   0.5000000000000000    0.5000000000000000    0.5000000000000000 Mn
   0.0000000000000000    0.0000000000000000    0.0000000000000000 Ga
