Mn3 Ga1
1.0
      2.8217896465       0.0000000000       1.6291610120
      0.9405965488       2.6604087922       1.6291610120
      0.0000000000       0.0000000000       3.2583220240
Mn Ga
3 1
direct
   0.7500000000000000    0.7500000000000000    0.7500000000000000 Mn
   0.2500000000000000    0.2500000000000000    0.2500000000000000 Mn
   0.5000000000000000    0.5000000000000000    0.5000000000000000 Mn
   0.0000000000000000    0.0000000000000000    0.0000000000000000 Ga
