Mn3 Ga1
1.0
      2.6454277936       0.0000000000       1.5273384488
      0.8818092645       2.4941332426       1.5273384488
      0.0000000000       0.0000000000       3.0546768975
Mn Ga
3 1
direct
   0.7500000000000000    0.7500000000000000    0.7500000000000000 Mn
   0.2500000000000000    0.2500000000000000    0.2500000000000000 Mn
   0.5000000000000000    0.5000000000000000    0.5000000000000000 Mn
   0.0000000000000000    0.0000000000000000    0.0000000000000000 Ga
