Mn3 Ga1
1.0
      3.1745133523       0.0000000000       1.8328061385
      1.0581711174       2.9929598912       1.8328061385
      0.0000000000       0.0000000000       3.6656122770
Mn Ga
3 1
direct
   0.7500000000000000    0.7500000000000000    0.7500000000000000 Mn
   0.2500000000000000    0.2500000000000000    0.2500000000000000 Mn
   0.5000000000000000    0.5000000000000000    0.5000000000000000 Mn
   0.0000000000000000    0.0000000000000000    0.0000000000000000 Ga
