Mn1 Se1
1.0
      3.1813696434       0.0000000000       1.8367647259
      1.0604576338       2.9994234923       1.8367647293
      0.0000000000       0.0000000000       3.6735283715
Mn Se
1 1
direct
   0.0000000000000000    0.0000000000000000    0.0000000000000000 Mn
   0.5000000000000000    0.5000000000000000    0.5000000000000000 Se
