Mn1 Se1
1.0
      2.5116076132       0.0000000000       1.4500774152
      0.8372033951       2.3679659150       1.4500774179
      0.0000000000       0.0000000000       2.9001539775
Mn Se
1 1
direct
   0.0000000000000000    0.0000000000000000    0.0000000000000000 Mn
   0.5000000000000000    0.5000000000000000    0.5000000000000000 Se
