Mn1 Se1
1.0
      2.6790481208       0.0000000000       1.5467492429
      0.8930169547       2.5258303093       1.5467492457
      0.0000000000       0.0000000000       3.0934975760
Mn Se
1 1
direct
   0.0000000000000000    0.0000000000000000    0.0000000000000000 Mn
   0.5000000000000000    0.5000000000000000    0.5000000000000000 Se
