Mn1 Se1
1.0
      2.8464886283       0.0000000000       1.6434210705
      0.9488305144       2.6836947036       1.6434210736
      0.0000000000       0.0000000000       3.2868411745
Mn Se
1 1
direct
   0.0000000000000000    0.0000000000000000    0.0000000000000000 Mn
   0.5000000000000000    0.5000000000000000    0.5000000000000000 Se
