Mn1 Se1
1.0
      3.0139291359       0.0000000000       1.7400928982
      1.0046440741       2.8415590979       1.7400929014
      0.0000000000       0.0000000000       3.4801847730
Mn Se
1 1
direct
   0.0000000000000000    0.0000000000000000    0.0000000000000000 Mn
   0.5000000000000000    0.5000000000000000    0.5000000000000000 Se
