Cs6 K2
1.0
     10.2471296470       0.0000000000       0.0000000000
     -5.1235700668       8.8742770259       0.0000000000
      0.0000000000       0.0000000000       8.2706330725
Cs K
6 2
direct
   0.8304554300000000    0.1695445700000000    0.7500000000000000 Cs
   0.3390901500000000    0.1695445700000000    0.7500000000000000 Cs
   0.8304554300000000    0.6609098500000000    0.7500000000000000 Cs
   0.1695445700000000    0.8304554300000000    0.2500000000000000 Cs
   0.6609098500000000    0.8304554300000000    0.2500000000000000 Cs
   0.1695445700000000    0.3390901500000000    0.2500000000000000 Cs
   0.6666666666666666    0.3333333333333333    0.2500000000000000 K
   0.3333333333333333    0.6666666666666666    0.7500000000000000 K
