Mg2 Cl4
1.0
      3.7879930570       0.0000000000       0.0000000000
     -2.0674568296       3.1740374380       0.0000000000
      0.0000000000       0.0000000000       8.1211235500
Mg Cl
2 4
direct
   0.0202440000000000    0.0553180000000000    0.2500000000000000 Mg
   0.0553180000000000    0.0202440000000000    0.7500000000000000 Mg
   0.3570790000000000    0.7296770000000000    0.2500000000000000 Cl
   0.0708410000000000    0.0708410000000000    0.5000000000000000 Cl
   0.0708410000000000    0.0708410000000000    0.0000000000000000 Cl
   0.7296770000000000    0.3570790000000000    0.7500000000000000 Cl
