Cu2 O4
1.0
      6.5234456550       0.0000000000       0.0000000000
     -6.0000298528       2.5602704894       0.0000000000
      0.0000000000       0.0000000000      10.5884435000
Cu O
2 4
direct
   0.6224660000000000    0.6224660000000000    0.7500000000000000 Cu
   0.3775340000000000    0.3775340000000000    0.2500000000000000 Cu
   0.1278640000000000    0.1278640000000000    0.6432500000000000 O
   0.8721360000000000    0.8721360000000000    0.1432500000000000 O
   0.8721360000000000    0.8721360000000000    0.3567500000000000 O
   0.1278640000000000    0.1278640000000000    0.8567500000000000 O
