Cu2 O4
1.0
      5.1500886750       0.0000000000       0.0000000000
     -4.7368656733       2.0212661759       0.0000000000
      0.0000000000       0.0000000000       8.3592975000
Cu O
2 4
direct
   0.6224660000000000    0.6224660000000000    0.7500000000000000 Cu
   0.3775340000000000    0.3775340000000000    0.2500000000000000 Cu
   0.1278640000000000    0.1278640000000000    0.6432500000000000 O
   0.8721360000000000    0.8721360000000000    0.1432500000000000 O
   0.8721360000000000    0.8721360000000000    0.3567500000000000 O
   0.1278640000000000    0.1278640000000000    0.8567500000000000 O
