Zn1 Cu2
1.0
      2.1962517600       0.0000000000       0.0000000000
     -1.0981259012       1.9020098050       0.0000000000
      0.0000000000       0.0000000000       5.3493677300
Zn Cu
1 2
direct
   0.0000000000000000    0.0000000000000000    0.0000000000000000 Zn
   0.3333333333333333    0.6666666666666666    0.6621414900000000 Cu
   0.6666666666666666    0.3333333333333333    0.3378585100000000 Cu
