Zn1 Cu2
1.0
      2.4546343200       0.0000000000       0.0000000000
     -1.2273171837       2.1257756644       0.0000000000
      0.0000000000       0.0000000000       5.9787051100
Zn Cu
1 2
direct
   0.0000000000000000    0.0000000000000000    0.0000000000000000 Zn
   0.3333333333333333    0.6666666666666666    0.6621414900000000 Cu
   0.6666666666666666    0.3333333333333333    0.3378585100000000 Cu
