Zn1 Cu2
1.0
      1.9378692000       0.0000000000       0.0000000000
     -0.9689346187       1.6782439456       0.0000000000
      0.0000000000       0.0000000000       4.7200303500
Zn Cu
1 2
direct
   0.0000000000000000    0.0000000000000000    0.0000000000000000 Zn
   0.3333333333333333    0.6666666666666666    0.6621414900000000 Cu
   0.6666666666666666    0.3333333333333333    0.3378585100000000 Cu
