Zn1 Cu2
1.0
      2.3254430400       0.0000000000       0.0000000000
     -1.1627215425       2.0138927347       0.0000000000
      0.0000000000       0.0000000000       5.6640364200
Zn Cu
1 2
direct
   0.0000000000000000    0.0000000000000000    0.0000000000000000 Zn
   0.3333333333333333    0.6666666666666666    0.6621414900000000 Cu
   0.6666666666666666    0.3333333333333333    0.3378585100000000 Cu
