Mn1 B4
1.0
      2.3125056696       0.0000000000       0.9652859854
      1.3227441555       2.9695977428       0.0830750237
      0.0000000000       0.0000000000       3.2519324565
Mn B
1 4
direct
   0.0000000000000000    0.0000000000000000    0.0000000000000000 Mn
   0.7968730000000001    0.8626501700000000    0.5437454700000000 B
   0.2031270000000000    0.4562545300000000    0.1373498300000000 B
   0.2031270000000000    0.1373498300000000    0.4562545300000000 B
   0.7968730000000001    0.5437454700000000    0.8626501700000000 B
