Mn1 B4
1.0
      2.0404461790       0.0000000000       0.8517229283
      1.1671271961       2.6202333025       0.0733014915
      0.0000000000       0.0000000000       2.8693521675
Mn B
1 4
direct
   0.0000000000000000    0.0000000000000000    0.0000000000000000 Mn
   0.7968730000000001    0.8626501700000000    0.5437454700000000 B
   0.2031270000000000    0.4562545300000000    0.1373498300000000 B
   0.2031270000000000    0.1373498300000000    0.4562545300000000 B
   0.7968730000000001    0.5437454700000000    0.8626501700000000 B
