Mn1 B4
1.0
      2.1764759243       0.0000000000       0.9085044569
      1.2449356758       2.7949155226       0.0781882576
      0.0000000000       0.0000000000       3.0606423120
Mn B
1 4
direct
   0.0000000000000000    0.0000000000000000    0.0000000000000000 Mn
   0.7968730000000001    0.8626501700000000    0.5437454700000000 B
   0.2031270000000000    0.4562545300000000    0.1373498300000000 B
   0.2031270000000000    0.1373498300000000    0.4562545300000000 B
   0.7968730000000001    0.5437454700000000    0.8626501700000000 B
