Mn1 B4
1.0
      2.5845651601       0.0000000000       1.0788490426
      1.4783611150       3.3189621831       0.0928485559
      0.0000000000       0.0000000000       3.6345127455
Mn B
1 4
direct
   0.0000000000000000    0.0000000000000000    0.0000000000000000 Mn
   0.7968730000000001    0.8626501700000000    0.5437454700000000 B
   0.2031270000000000    0.4562545300000000    0.1373498300000000 B
   0.2031270000000000    0.1373498300000000    0.4562545300000000 B
   0.7968730000000001    0.5437454700000000    0.8626501700000000 B
