Mn1 B4
1.0
      2.4485354148       0.0000000000       1.0220675140
      1.4005526353       3.1442799630       0.0879617898
      0.0000000000       0.0000000000       3.4432226010
Mn B
1 4
direct
   0.0000000000000000    0.0000000000000000    0.0000000000000000 Mn
   0.7968730000000001    0.8626501700000000    0.5437454700000000 B
   0.2031270000000000    0.4562545300000000    0.1373498300000000 B
   0.2031270000000000    0.1373498300000000    0.4562545300000000 B
   0.7968730000000001    0.5437454700000000    0.8626501700000000 B
