Li3 Co1
1.0
      2.7898907386       0.0000000000      -2.5462800621
     -0.5430665439       2.7365249975      -2.5462800621
      0.0000000000       0.0000000000       3.7771725520
Li Co
3 1
direct
   0.7500000000000000    0.2500000000000000    0.5000000000000000 Li
   0.2500000000000000    0.7500000000000000    0.5000000000000000 Li
   0.5000000000000000    0.5000000000000000    0.0000000000000000 Li
   0.0000000000000000    0.0000000000000000    0.0000000000000000 Co
