Li3 Co1
1.0
      2.9642589097       0.0000000000      -2.7054225659
     -0.5770082029       2.9075578099      -2.7054225659
      0.0000000000       0.0000000000       4.0132458365
Li Co
3 1
direct
   0.7500000000000000    0.2500000000000000    0.5000000000000000 Li
   0.2500000000000000    0.7500000000000000    0.5000000000000000 Li
   0.5000000000000000    0.5000000000000000    0.0000000000000000 Li
   0.0000000000000000    0.0000000000000000    0.0000000000000000 Co
