Li3 Co1
1.0
      3.1386270809       0.0000000000      -2.8645650698
     -0.6109498619       3.0785906222      -2.8645650698
      0.0000000000       0.0000000000       4.2493191210
Li Co
3 1
direct
   0.7500000000000000    0.2500000000000000    0.5000000000000000 Li
   0.2500000000000000    0.7500000000000000    0.5000000000000000 Li
   0.5000000000000000    0.5000000000000000    0.0000000000000000 Li
   0.0000000000000000    0.0000000000000000    0.0000000000000000 Co
