K1 Eu3
1.0
      4.2853158638       0.0000000000       2.4741282675
      1.4284386213       4.0402345424       2.4741282675
      0.0000000000       0.0000000000       4.9482565350
K Eu
1 3
direct
   0.0000000000000000    0.0000000000000000    0.0000000000000000 K
   0.2500000000000000    0.2500000000000000    0.2500000000000000 Eu
   0.7500000000000000    0.7500000000000000    0.7500000000000000 Eu
   0.5000000000000000    0.5000000000000000    0.5000000000000000 Eu
