K1 Eu3
1.0
      5.1423790365       0.0000000000       2.9689539210
      1.7141263455       4.8482814509       2.9689539210
      0.0000000000       0.0000000000       5.9379078420
K Eu
1 3
direct
   0.0000000000000000    0.0000000000000000    0.0000000000000000 K
   0.2500000000000000    0.2500000000000000    0.2500000000000000 Eu
   0.7500000000000000    0.7500000000000000    0.7500000000000000 Eu
   0.5000000000000000    0.5000000000000000    0.5000000000000000 Eu
