K1 Eu3
1.0
      4.5710035880       0.0000000000       2.6390701520
      1.5236678627       4.3095835119       2.6390701520
      0.0000000000       0.0000000000       5.2781403040
K Eu
1 3
direct
   0.0000000000000000    0.0000000000000000    0.0000000000000000 K
   0.2500000000000000    0.2500000000000000    0.2500000000000000 Eu
   0.7500000000000000    0.7500000000000000    0.7500000000000000 Eu
   0.5000000000000000    0.5000000000000000    0.5000000000000000 Eu
