K1 Eu3
1.0
      4.8566913123       0.0000000000       2.8040120365
      1.6188971041       4.5789324814       2.8040120365
      0.0000000000       0.0000000000       5.6080240730
K Eu
1 3
direct
   0.0000000000000000    0.0000000000000000    0.0000000000000000 K
   0.2500000000000000    0.2500000000000000    0.2500000000000000 Eu
   0.7500000000000000    0.7500000000000000    0.7500000000000000 Eu
   0.5000000000000000    0.5000000000000000    0.5000000000000000 Eu
