K1 Eu3
1.0
      5.4280667608       0.0000000000       3.1338958055
      1.8093555869       5.1176304203       3.1338958055
      0.0000000000       0.0000000000       6.2677916110
K Eu
1 3
direct
   0.0000000000000000    0.0000000000000000    0.0000000000000000 K
   0.2500000000000000    0.2500000000000000    0.2500000000000000 Eu
   0.7500000000000000    0.7500000000000000    0.7500000000000000 Eu
   0.5000000000000000    0.5000000000000000    0.5000000000000000 Eu
