K3 Rh1
1.0
      5.0878344902       0.0000000000       0.2431021511
      2.4389231847       4.4651666821       0.2431021511
      0.0000000000       0.0000000000       5.6877853140
K Rh
3 1
direct
   0.0000000000000000    0.0000000000000000    0.5000000000000000 K
   0.3383040000000000    0.3383040000000000    0.8832179999999999 K
   0.6616960000000000    0.6616960000000000    0.1167820000000000 K
   0.0000000000000000    0.0000000000000000    0.0000000000000000 Rh
