K3 Rh1
1.0
      5.3704919619       0.0000000000       0.2566078262
      2.5744189172       4.7132314978       0.2566078262
      0.0000000000       0.0000000000       6.0037733870
K Rh
3 1
direct
   0.0000000000000000    0.0000000000000000    0.5000000000000000 K
   0.3383040000000000    0.3383040000000000    0.8832179999999999 K
   0.6616960000000000    0.6616960000000000    0.1167820000000000 K
   0.0000000000000000    0.0000000000000000    0.0000000000000000 Rh
