K3 Rh1
1.0
      4.5225195469       0.0000000000       0.2160908010
      2.1679317197       3.9690370508       0.2160908010
      0.0000000000       0.0000000000       5.0558091680
K Rh
3 1
direct
   0.0000000000000000    0.0000000000000000    0.5000000000000000 K
   0.3383040000000000    0.3383040000000000    0.8832179999999999 K
   0.6616960000000000    0.6616960000000000    0.1167820000000000 K
   0.0000000000000000    0.0000000000000000    0.0000000000000000 Rh
