K3 Rh1
1.0
      4.8051770186       0.0000000000       0.2295964761
      2.3034274522       4.2171018664       0.2295964761
      0.0000000000       0.0000000000       5.3717972410
K Rh
3 1
direct
   0.0000000000000000    0.0000000000000000    0.5000000000000000 K
   0.3383040000000000    0.3383040000000000    0.8832179999999999 K
   0.6616960000000000    0.6616960000000000    0.1167820000000000 K
   0.0000000000000000    0.0000000000000000    0.0000000000000000 Rh
