La2 Zn4
1.0
      3.8499400807       0.0000000000       1.6861750166
      1.9543160171       4.7976732887       0.7760832651
      0.0000000000       0.0000000000       5.2382553660
La Zn
2 4
direct
   0.4579473800000000    0.2920526200000000    0.7920526200000000 La
   0.5420526200000000    0.7079473800000000    0.2079473800000000 La
   0.1638196100000000    0.2734642200000000    0.3988945700000000 Zn
   0.8361803900000000    0.1011054300000000    0.2265357800000000 Zn
   0.8361803900000000    0.7265357800000000    0.6011054300000001 Zn
   0.1638196100000000    0.8988945699999999    0.7734642200000000 Zn
