Li3 Al1
1.0
      3.4331923650       0.0000000000      -3.5076774755
     -0.5713387399       3.3853185757      -3.5076774755
      0.0000000000       0.0000000000       4.9082187285
Li Al
3 1
direct
   0.7499990000000000    0.2500000000000000    0.4999980000000000 Li
   0.2500000000000000    0.7499990000000000    0.4999980000000000 Li
   0.5000000000000000    0.5000000000000000    0.0000000000000000 Li
   0.0000000000000000    0.0000000000000000    0.0000000000000000 Al
