Li3 Al1
1.0
      3.2524980300       0.0000000000      -3.3230628715
     -0.5412682799       3.2071439139      -3.3230628715
      0.0000000000       0.0000000000       4.6498914270
Li Al
3 1
direct
   0.7499990000000000    0.2500000000000000    0.4999980000000000 Li
   0.2500000000000000    0.7499990000000000    0.4999980000000000 Li
   0.5000000000000000    0.5000000000000000    0.0000000000000000 Li
   0.0000000000000000    0.0000000000000000    0.0000000000000000 Al
