Li3 Al1
1.0
      3.0718036950       0.0000000000      -3.1384482675
     -0.5111978199       3.0289692520      -3.1384482675
      0.0000000000       0.0000000000       4.3915641255
Li Al
3 1
direct
   0.7499990000000000    0.2500000000000000    0.4999980000000000 Li
   0.2500000000000000    0.7499990000000000    0.4999980000000000 Li
   0.5000000000000000    0.5000000000000000    0.0000000000000000 Li
   0.0000000000000000    0.0000000000000000    0.0000000000000000 Al
