Cu1 F2
1.0
      3.3979774338       0.0000000000      -5.1840348824
     -0.3028232678       3.3844569297      -5.1840348824
      0.0000000000       0.0000000000       6.1984246630
Cu F
1 2
direct
   0.0000000000000000    0.0000000000000000    0.0000000000000000 Cu
   0.5000000000000000    0.0000000000000000    0.5000000000000000 F
   0.0000000000000000    0.5000000000000000    0.5000000000000000 F
