Cu1 F2
1.0
      2.6826137635       0.0000000000      -4.0926591177
     -0.2390710009       2.6719396814      -4.0926591177
      0.0000000000       0.0000000000       4.8934931550
Cu F
1 2
direct
   0.0000000000000000    0.0000000000000000    0.0000000000000000 Cu
   0.5000000000000000    0.0000000000000000    0.5000000000000000 F
   0.0000000000000000    0.5000000000000000    0.5000000000000000 F
