Cu1 F2
1.0
      2.8614546811       0.0000000000      -4.3655030589
     -0.2550090676       2.8500689935      -4.3655030589
      0.0000000000       0.0000000000       5.2197260320
Cu F
1 2
direct
   0.0000000000000000    0.0000000000000000    0.0000000000000000 Cu
   0.5000000000000000    0.0000000000000000    0.5000000000000000 F
   0.0000000000000000    0.5000000000000000    0.5000000000000000 F
