Cu1 F2
1.0
      3.0402955987       0.0000000000      -4.6383470001
     -0.2709471343       3.0281983056      -4.6383470001
      0.0000000000       0.0000000000       5.5459589090
Cu F
1 2
direct
   0.0000000000000000    0.0000000000000000    0.0000000000000000 Cu
   0.5000000000000000    0.0000000000000000    0.5000000000000000 F
   0.0000000000000000    0.5000000000000000    0.5000000000000000 F
