Cu1 F2
1.0
      3.2191365163       0.0000000000      -4.9111909412
     -0.2868852011       3.2063276176      -4.9111909412
      0.0000000000       0.0000000000       5.8721917860
Cu F
1 2
direct
   0.0000000000000000    0.0000000000000000    0.0000000000000000 Cu
   0.5000000000000000    0.0000000000000000    0.5000000000000000 F
   0.0000000000000000    0.5000000000000000    0.5000000000000000 F
