K6 Mn2
1.0
      5.7474998899       0.0000000000      -3.7224985175
     -1.6993079833       5.4905470914      -3.7224985175
      0.0000000000       0.0000000000       6.8476821040
K Mn
6 2
direct
   0.6933360000000000    0.1933360000000000    0.8866710000000000 K
   0.3066640000000000    0.8066640000000000    0.1133290000000000 K
   0.1933360000000000    0.3066640000000000    0.5000000000000000 K
   0.8066640000000000    0.6933360000000000    0.5000000000000000 K
   0.7500000000000000    0.7500000000000000    0.0000000000000000 K
   0.2500000000000000    0.2500000000000000    0.0000000000000000 K
   0.7500000000000000    0.2500000000000000    0.5000000000000000 Mn
   0.2500000000000000    0.7500000000000000    0.5000000000000000 Mn
