Li2 Gd6
1.0
      5.9894347470       0.0000000000       0.0000000000
     -2.9947172196       5.1870027341       0.0000000000
      0.0000000000       0.0000000000       4.7419341000
Li Gd
2 6
direct
   0.6666666666666666    0.3333333333333333    0.2500000000000000 Li
   0.3333333333333333    0.6666666666666666    0.7500000000000000 Li
   0.8301670000000000    0.1698330000000000    0.7500000000000000 Gd
   0.3396670000000000    0.1698330000000000    0.7500000000000000 Gd
   0.8301670000000000    0.6603329999999999    0.7500000000000000 Gd
   0.1698330000000000    0.8301670000000000    0.2500000000000000 Gd
   0.6603329999999999    0.8301670000000000    0.2500000000000000 Gd
   0.1698330000000000    0.3396670000000000    0.2500000000000000 Gd
