Li2 Mg4
1.0
      4.8391405178       0.0000000000       1.2696285688
      4.0732512684       2.6126433080       1.2696285688
      0.0000000000       0.0000000000       6.2704918030
Li Mg
2 4
direct
   0.5277310000000000    0.5277310000000000    0.1952750000000000 Li
   0.4722690000000000    0.4722690000000000    0.8047250000000000 Li
   0.8082490000000000    0.8082490000000000    0.1356080000000000 Mg
   0.1386930000000000    0.1386930000000000    0.4711320000000000 Mg
   0.8613070000000000    0.8613070000000000    0.5288680000000000 Mg
   0.1917510000000000    0.1917510000000000    0.8643920000000000 Mg
