Li2 Mg4
1.0
      4.2698298686       0.0000000000       1.1202605018
      3.5940452369       2.3052735071       1.1202605018
      0.0000000000       0.0000000000       5.5327868850
Li Mg
2 4
direct
   0.5277310000000000    0.5277310000000000    0.1952750000000000 Li
   0.4722690000000000    0.4722690000000000    0.8047250000000000 Li
   0.8082490000000000    0.8082490000000000    0.1356080000000000 Mg
   0.1386930000000000    0.1386930000000000    0.4711320000000000 Mg
   0.8613070000000000    0.8613070000000000    0.5288680000000000 Mg
   0.1917510000000000    0.1917510000000000    0.8643920000000000 Mg
