Pm3 Cu1
1.0
      3.2345220263       0.0000000000      -3.1718064946
     -0.5704602021       3.1838197022      -3.1718064946
      0.0000000000       0.0000000000       4.5301754025
Pm Cu
3 1
direct
   0.7500010000000000    0.2500000000000000    0.5000000000000000 Pm
   0.2500000000000000    0.7500010000000000    0.5000000000000000 Pm
   0.4999990000000000    0.4999990000000000    0.0000000000000000 Pm
   0.0000000000000000    0.0000000000000000    0.0000000000000000 Cu
