Pm3 Cu1
1.0
      3.4501568280       0.0000000000      -3.3832602609
     -0.6084908822       3.3960743490      -3.3832602609
      0.0000000000       0.0000000000       4.8321870960
Pm Cu
3 1
direct
   0.7500010000000000    0.2500000000000000    0.5000000000000000 Pm
   0.2500000000000000    0.7500010000000000    0.5000000000000000 Pm
   0.4999990000000000    0.4999990000000000    0.0000000000000000 Pm
   0.0000000000000000    0.0000000000000000    0.0000000000000000 Cu
