Pm3 Cu1
1.0
      3.8814264315       0.0000000000      -3.8061677935
     -0.6845522425       3.8205836427      -3.8061677935
      0.0000000000       0.0000000000       5.4362104830
Pm Cu
3 1
direct
   0.7500010000000000    0.2500000000000000    0.5000000000000000 Pm
   0.2500000000000000    0.7500010000000000    0.5000000000000000 Pm
   0.4999990000000000    0.4999990000000000    0.0000000000000000 Pm
   0.0000000000000000    0.0000000000000000    0.0000000000000000 Cu
