Pm3 Cu1
1.0
      3.6657916298       0.0000000000      -3.5947140272
     -0.6465215623       3.6083289959      -3.5947140272
      0.0000000000       0.0000000000       5.1341987895
Pm Cu
3 1
direct
   0.7500010000000000    0.2500000000000000    0.5000000000000000 Pm
   0.2500000000000000    0.7500010000000000    0.5000000000000000 Pm
   0.4999990000000000    0.4999990000000000    0.0000000000000000 Pm
   0.0000000000000000    0.0000000000000000    0.0000000000000000 Cu
