Pm3 Cu1
1.0
      4.0970612333       0.0000000000      -4.0176215598
     -0.7225829226       4.0328382895      -4.0176215598
      0.0000000000       0.0000000000       5.7382221765
Pm Cu
3 1
direct
   0.7500010000000000    0.2500000000000000    0.5000000000000000 Pm
   0.2500000000000000    0.7500010000000000    0.5000000000000000 Pm
   0.4999990000000000    0.4999990000000000    0.0000000000000000 Pm
   0.0000000000000000    0.0000000000000000    0.0000000000000000 Cu
