Li2 Tm6
1.0
      6.2115468840       0.0000000000       0.0000000000
     -3.1057741293       5.3793570016       0.0000000000
      0.0000000000       0.0000000000       4.9101804000
Li Tm
2 6
direct
   0.6666666666666666    0.3333333333333333    0.2500000000000000 Li
   0.3333333333333333    0.6666666666666666    0.7500000000000000 Li
   0.8318620000000000    0.1681380000000000    0.7500000000000000 Tm
   0.3362760000000000    0.1681380000000000    0.7500000000000000 Tm
   0.8318620000000000    0.6637240000000000    0.7500000000000000 Tm
   0.1681380000000000    0.8318620000000000    0.2500000000000000 Tm
   0.6637240000000000    0.8318620000000000    0.2500000000000000 Tm
   0.1681380000000000    0.3362760000000000    0.2500000000000000 Tm
