Li1 Rh1
1.0
      2.2544555525       0.0000000000       0.0000000000
     -1.1272289805       1.9524147119       0.0000000000
      0.0000000000       0.0000000000       3.6776137485
Li Rh
1 1
direct
   0.3333333333333333    0.6666666666666666    0.5000000000000000 Li
   0.0000000000000000    0.0000000000000000    0.0000000000000000 Rh
