Cu6 Ge2
1.0
      4.4494591045       0.0000000000       0.0000000000
     -2.2247288602       3.8533450171       0.0000000000
      0.0000000000       0.0000000000       3.5406682510
Cu Ge
6 2
direct
   0.1646082900000000    0.3292175900000000    0.2500000000000000 Cu
   0.6707824100000001    0.8353917100000000    0.2500000000000000 Cu
   0.1646082900000000    0.8353917100000000    0.2500000000000000 Cu
   0.8353917100000000    0.6707824100000001    0.7500000000000000 Cu
   0.3292175900000000    0.1646082900000000    0.7500000000000000 Cu
   0.8353917100000000    0.1646082900000000    0.7500000000000000 Cu
   0.3333333333333333    0.6666666666666666    0.7500000000000000 Ge
   0.6666666666666666    0.3333333333333333    0.2500000000000000 Ge
