K3 Na1
1.0
      4.6595629353       0.0000000000       2.6901999150
      1.5531876451       4.3930780652       2.6901999150
      0.0000000000       0.0000000000       5.3803998300
K Na
3 1
direct
   0.2500000000000000    0.2500000000000000    0.2500000000000000 K
   0.7500000000000000    0.7500000000000000    0.7500000000000000 K
   0.5000000000000000    0.5000000000000000    0.5000000000000000 K
   0.0000000000000000    0.0000000000000000    0.0000000000000000 Na
