K3 Na1
1.0
      5.2808379933       0.0000000000       3.0488932370
      1.7602793311       4.9788218072       3.0488932370
      0.0000000000       0.0000000000       6.0977864740
K Na
3 1
direct
   0.2500000000000000    0.2500000000000000    0.2500000000000000 K
   0.7500000000000000    0.7500000000000000    0.7500000000000000 K
   0.5000000000000000    0.5000000000000000    0.5000000000000000 K
   0.0000000000000000    0.0000000000000000    0.0000000000000000 Na
