K3 Na1
1.0
      5.9021130514       0.0000000000       3.4075865590
      1.9673710171       5.5645655493       3.4075865590
      0.0000000000       0.0000000000       6.8151731180
K Na
3 1
direct
   0.2500000000000000    0.2500000000000000    0.2500000000000000 K
   0.7500000000000000    0.7500000000000000    0.7500000000000000 K
   0.5000000000000000    0.5000000000000000    0.5000000000000000 K
   0.0000000000000000    0.0000000000000000    0.0000000000000000 Na
