K3 Na1
1.0
      4.9702004643       0.0000000000       2.8695465760
      1.6567334881       4.6859499362       2.8695465760
      0.0000000000       0.0000000000       5.7390931520
K Na
3 1
direct
   0.2500000000000000    0.2500000000000000    0.2500000000000000 K
   0.7500000000000000    0.7500000000000000    0.7500000000000000 K
   0.5000000000000000    0.5000000000000000    0.5000000000000000 K
   0.0000000000000000    0.0000000000000000    0.0000000000000000 Na
