K3 Na1
1.0
      5.5914755224       0.0000000000       3.2282398980
      1.8638251741       5.2716936783       3.2282398980
      0.0000000000       0.0000000000       6.4564797960
K Na
3 1
direct
   0.2500000000000000    0.2500000000000000    0.2500000000000000 K
   0.7500000000000000    0.7500000000000000    0.7500000000000000 K
   0.5000000000000000    0.5000000000000000    0.5000000000000000 K
   0.0000000000000000    0.0000000000000000    0.0000000000000000 Na
