Li3 Ag1
1.0
      2.8314794580       0.0000000000      -2.1348519469
     -0.7033914338       2.7427206223      -2.1348519469
      0.0000000000       0.0000000000       3.5461061400
Li Ag
3 1
direct
   0.2500000000000000    0.7500010000000000    0.5000010000000000 Li
   0.7500010000000000    0.2500000000000000    0.5000010000000000 Li
   0.5000000000000000    0.5000000000000000    0.0000000000000000 Li
   0.0000000000000000    0.0000000000000000    0.0000000000000000 Ag
