Li1 Rh1
1.0
      2.3870705850       0.0000000000       0.0000000000
     -1.1935365676       2.0672626361       0.0000000000
      0.0000000000       0.0000000000       3.8939439690
Li Rh
1 1
direct
   0.3333333333333333    0.6666666666666666    0.5000000000000000 Li
   0.0000000000000000    0.0000000000000000    0.0000000000000000 Rh
