Li1 Rh1
1.0
      1.9892254875       0.0000000000       0.0000000000
     -0.9946138063       1.7227188635       0.0000000000
      0.0000000000       0.0000000000       3.2449533075
Li Rh
1 1
direct
   0.3333333333333333    0.6666666666666666    0.5000000000000000 Li
   0.0000000000000000    0.0000000000000000    0.0000000000000000 Rh
