Mn1 Au4
1.0
      3.1212364391       0.0000000000       1.3528210049
      1.5620716893       3.9259304197       0.6730592892
      0.0000000000       0.0000000000       4.2770779060
Mn Au
1 4
direct
   0.0000000000000000    0.0000000000000000    0.0000000000000000 Mn
   0.2046117400000000    0.1938433000000000    0.3969332300000000 Au
   0.6014686000000000    0.6031508000000000    0.1939100000000000 Au
   0.3985314000000000    0.3968492000000000    0.8060900000000000 Au
   0.7953882600000000    0.8061566999999999    0.6030667700000000 Au
