Mn1 Au4
1.0
      3.3048385826       0.0000000000       1.4323987111
      1.6539582593       4.1568675032       0.7126510121
      0.0000000000       0.0000000000       4.5286707240
Mn Au
1 4
direct
   0.0000000000000000    0.0000000000000000    0.0000000000000000 Mn
   0.2046117400000000    0.1938433000000000    0.3969332300000000 Au
   0.6014686000000000    0.6031508000000000    0.1939100000000000 Au
   0.3985314000000000    0.3968492000000000    0.8060900000000000 Au
   0.7953882600000000    0.8061566999999999    0.6030667700000000 Au
