K6 Re3
1.0
      8.0486907150       0.0000000000       0.0000000000
     -4.0243452711       6.9703706763       0.0000000000
      0.0000000000       0.0000000000       4.1492707500
K Re
6 3
direct
   0.4106590000000000    0.4106590000000000    0.0000000000000000 K
   0.5893410000000000    0.0000000000000000    0.0000000000000000 K
   0.0000000000000000    0.5893410000000000    0.0000000000000000 K
   0.7425800000000000    0.7425800000000000    0.5000000000000000 K
   0.2574200000000000    0.0000000000000000    0.5000000000000000 K
   0.0000000000000000    0.2574200000000000    0.5000000000000000 K
   0.0000000000000000    0.0000000000000000    0.0000000000000000 Re
   0.6666666666666666    0.3333333333333333    0.5000000000000000 Re
   0.3333333333333333    0.6666666666666666    0.5000000000000000 Re
