K6 Re3
1.0
      8.9955955050       0.0000000000       0.0000000000
     -4.4977976560       7.7904142852       0.0000000000
      0.0000000000       0.0000000000       4.6374202500
K Re
6 3
direct
   0.4106590000000000    0.4106590000000000    0.0000000000000000 K
   0.5893410000000000    0.0000000000000000    0.0000000000000000 K
   0.0000000000000000    0.5893410000000000    0.0000000000000000 K
   0.7425800000000000    0.7425800000000000    0.5000000000000000 K
   0.2574200000000000    0.0000000000000000    0.5000000000000000 K
   0.0000000000000000    0.2574200000000000    0.5000000000000000 K
   0.0000000000000000    0.0000000000000000    0.0000000000000000 Re
   0.6666666666666666    0.3333333333333333    0.5000000000000000 Re
   0.3333333333333333    0.6666666666666666    0.5000000000000000 Re
