Pr2 Zn17
1.0
      6.0515643170       0.0000000000       0.7467527915
      0.6602700942       6.0154348653       0.7467537576
      0.0000000000       0.0000000000       6.0974642340
Pr Zn
2 17
direct
   0.6633513400000000    0.6633513400000000    0.6633513400000000 Pr
   0.3366486600000000    0.3366486600000000    0.3366486600000000 Pr
   0.3485605000000000    0.3485605000000000    0.8391282600000000 Zn
   0.3485605000000000    0.8391282600000000    0.3485605000000000 Zn
   0.0985473400000000    0.0985473400000000    0.0985473400000000 Zn
   0.9014526600000000    0.9014526600000000    0.9014526600000000 Zn
   0.0000000000000000    0.0000000000000000    0.5000000000000000 Zn
   0.5000000000000000    0.0000000000000000    0.0000000000000000 Zn
   0.0000000000000000    0.5000000000000000    0.0000000000000000 Zn
   0.7089087200000000    0.2910912800000000    0.0000000000000000 Zn
   0.0000000000000000    0.7089087200000000    0.2910912800000000 Zn
   0.2910912800000000    0.0000000000000000    0.7089087200000000 Zn
   0.2910912800000000    0.7089087200000000    0.0000000000000000 Zn
   0.0000000000000000    0.2910912800000000    0.7089087200000000 Zn
   0.7089087200000000    0.0000000000000000    0.2910912800000000 Zn
   0.6514394999999999    0.1608717400000000    0.6514394999999999 Zn
   0.6514394999999999    0.6514394999999999    0.1608717400000000 Zn
   0.1608717400000000    0.6514394999999999    0.6514394999999999 Zn
   0.8391282600000000    0.3485605000000000    0.3485605000000000 Zn
