Li3 Bi1
1.0
      3.0730345890       0.0000000000       1.7742171384
      1.0243446148       2.8972848378       1.7742171379
      0.0000000000       0.0000000000       3.5484342825
Li Bi
3 1
direct
   0.7500000000000000    0.7500000000000000    0.7500000000000000 Li
   0.5000000000000000    0.5000000000000000    0.5000000000000000 Li
   0.2500000000000000    0.2500000000000000    0.2500000000000000 Li
   0.0000000000000000    0.0000000000000000    0.0000000000000000 Bi
