Li3 Bi1
1.0
      3.8925104794       0.0000000000       2.2473417086
      1.2975031787       3.6698941279       2.2473417080
      0.0000000000       0.0000000000       4.4946834245
Li Bi
3 1
direct
   0.7500000000000000    0.7500000000000000    0.7500000000000000 Li
   0.5000000000000000    0.5000000000000000    0.5000000000000000 Li
   0.2500000000000000    0.2500000000000000    0.2500000000000000 Li
   0.0000000000000000    0.0000000000000000    0.0000000000000000 Bi
