Zn13 Fe1
1.0
      4.7610409535       0.0000000000       0.7597383801
      0.6529734639       5.7665136608       2.0691637140
      0.0000000000       0.0000000000       6.1612002430
Zn Fe
13 1
direct
   0.9999998800000000    0.0000011100000000    0.9999987299999999 Zn
   0.9388551000000001    0.3849826500000000    0.3849802800000000 Zn
   0.0611446600000000    0.6150173900000000    0.6150194300000000 Zn
   0.3756522400000000    0.7767313800000000    0.7767355700000000 Zn
   0.6243480200000000    0.2232664800000000    0.2232658200000000 Zn
   0.3157220700000000    0.6292959100000000    0.2180054300000000 Zn
   0.6842843600000000    0.7819932100000000    0.3707039600000000 Zn
   0.6842789600000000    0.3707035500000000    0.7819951200000000 Zn
   0.3157155700000000    0.2180067100000000    0.6292957800000000 Zn
   0.8018010200000000    0.6429507500000000    0.0062023800000000 Zn
   0.1982005200000000    0.9937962100000000    0.3570509400000000 Zn
   0.1981999500000000    0.3570501500000000    0.9937977700000000 Zn
   0.8017985100000000    0.0062036300000000    0.6429478800000000 Zn
   0.5000001300000000    0.9999998600000000    0.9999999200000000 Fe
