Li1 B11
1.0
      3.8560923252       0.0000000000       2.2263159420
      1.2853641084       3.6355587094       2.2263159420
      0.0000000000       0.0000000000       4.4526318840
Li B
1 11
direct
   0.2500000000000000    0.2500000000000000    0.2500000000000000 Li
   0.7500000000000000    0.7500000000000000    0.7500000000000000 B
   0.3214410000000000    0.3214410000000000    0.6785590000000000 B
   0.6785590000000000    0.3214410000000000    0.6785590000000000 B
   0.3214410000000000    0.6785590000000000    0.6785590000000000 B
   0.6785590000000000    0.6785590000000000    0.3214410000000000 B
   0.3214410000000000    0.6785590000000000    0.3214410000000000 B
   0.6785590000000000    0.3214410000000000    0.3214410000000000 B
   0.2786780000000000    0.9071070000000000    0.9071070000000000 B
   0.9071070000000000    0.2786780000000000    0.9071070000000000 B
   0.9071070000000000    0.9071070000000000    0.9071070000000000 B
   0.9071070000000000    0.9071070000000000    0.2786780000000000 B
