Li1 B11
1.0
      3.6418649738       0.0000000000       2.1026317230
      1.2139549913       3.4335832256       2.1026317230
      0.0000000000       0.0000000000       4.2052634460
Li B
1 11
direct
   0.2500000000000000    0.2500000000000000    0.2500000000000000 Li
   0.7500000000000000    0.7500000000000000    0.7500000000000000 B
   0.3214410000000000    0.3214410000000000    0.6785590000000000 B
   0.6785590000000000    0.3214410000000000    0.6785590000000000 B
   0.3214410000000000    0.6785590000000000    0.6785590000000000 B
   0.6785590000000000    0.6785590000000000    0.3214410000000000 B
   0.3214410000000000    0.6785590000000000    0.3214410000000000 B
   0.6785590000000000    0.3214410000000000    0.3214410000000000 B
   0.2786780000000000    0.9071070000000000    0.9071070000000000 B
   0.9071070000000000    0.2786780000000000    0.9071070000000000 B
   0.9071070000000000    0.9071070000000000    0.9071070000000000 B
   0.9071070000000000    0.9071070000000000    0.2786780000000000 B
