K3 In1
1.0
      4.8022109237       0.0000000000       2.7725577695
      1.6007369746       4.5275678784       2.7725577695
      0.0000000000       0.0000000000       5.5451155390
K In
3 1
direct
   0.2500000000000000    0.2500000000000000    0.2500000000000000 K
   0.7500000000000000    0.7500000000000000    0.7500000000000000 K
   0.5000000000000000    0.5000000000000000    0.5000000000000000 K
   0.0000000000000000    0.0000000000000000    0.0000000000000000 In
