K3 In1
1.0
      5.3671769147       0.0000000000       3.0987410365
      1.7890589716       5.0602229230       3.0987410365
      0.0000000000       0.0000000000       6.1974820730
K In
3 1
direct
   0.2500000000000000    0.2500000000000000    0.2500000000000000 K
   0.7500000000000000    0.7500000000000000    0.7500000000000000 K
   0.5000000000000000    0.5000000000000000    0.5000000000000000 K
   0.0000000000000000    0.0000000000000000    0.0000000000000000 In
