K3 In1
1.0
      5.0846939192       0.0000000000       2.9356494030
      1.6948979731       4.7938954007       2.9356494030
      0.0000000000       0.0000000000       5.8712988060
K In
3 1
direct
   0.2500000000000000    0.2500000000000000    0.2500000000000000 K
   0.7500000000000000    0.7500000000000000    0.7500000000000000 K
   0.5000000000000000    0.5000000000000000    0.5000000000000000 K
   0.0000000000000000    0.0000000000000000    0.0000000000000000 In
