K3 In1
1.0
      4.2372449327       0.0000000000       2.4463745025
      1.4124149776       3.9949128339       2.4463745025
      0.0000000000       0.0000000000       4.8927490050
K In
3 1
direct
   0.2500000000000000    0.2500000000000000    0.2500000000000000 K
   0.7500000000000000    0.7500000000000000    0.7500000000000000 K
   0.5000000000000000    0.5000000000000000    0.5000000000000000 K
   0.0000000000000000    0.0000000000000000    0.0000000000000000 In
