K3 In1
1.0
      4.5197279282       0.0000000000       2.6094661360
      1.5065759761       4.2612403562       2.6094661360
      0.0000000000       0.0000000000       5.2189322720
K In
3 1
direct
   0.2500000000000000    0.2500000000000000    0.2500000000000000 K
   0.7500000000000000    0.7500000000000000    0.7500000000000000 K
   0.5000000000000000    0.5000000000000000    0.5000000000000000 K
   0.0000000000000000    0.0000000000000000    0.0000000000000000 In
