Cu1 N1
1.0
      2.1708034566       0.0000000000       1.2533139600
      0.7236011522       2.0466531263       1.2533139600
      0.0000000000       0.0000000000       2.5066279200
Cu N
1 1
direct
   0.0000000000000000    0.0000000000000000    0.0000000000000000 Cu
   0.2500000000000000    0.2500000000000000    0.2500000000000000 N
