Cu1 N1
1.0
      2.5778291047       0.0000000000       1.4883103275
      0.8592763682       2.4304005875       1.4883103275
      0.0000000000       0.0000000000       2.9766206550
Cu N
1 1
direct
   0.0000000000000000    0.0000000000000000    0.0000000000000000 Cu
   0.2500000000000000    0.2500000000000000    0.2500000000000000 N
