Cu1 N1
1.0
      2.3064786726       0.0000000000       1.3316460825
      0.7688262242       2.1745689467       1.3316460825
      0.0000000000       0.0000000000       2.6632921650
Cu N
1 1
direct
   0.0000000000000000    0.0000000000000000    0.0000000000000000 Cu
   0.2500000000000000    0.2500000000000000    0.2500000000000000 N
