Cu1 N1
1.0
      2.4421538886       0.0000000000       1.4099782050
      0.8140512962       2.3024847671       1.4099782050
      0.0000000000       0.0000000000       2.8199564100
Cu N
1 1
direct
   0.0000000000000000    0.0000000000000000    0.0000000000000000 Cu
   0.2500000000000000    0.2500000000000000    0.2500000000000000 N
