Cu1 N1
1.0
      2.0351282405       0.0000000000       1.1749818375
      0.6783760802       1.9187373059       1.1749818375
      0.0000000000       0.0000000000       2.3499636750
Cu N
1 1
direct
   0.0000000000000000    0.0000000000000000    0.0000000000000000 Cu
   0.2500000000000000    0.2500000000000000    0.2500000000000000 N
