K3 Mo1
1.0
      5.3798917295       0.0000000000       3.1060819383
      1.7932972432       5.0722105653       3.1060819383
      0.0000000000       0.0000000000       6.2121638765
K Mo
3 1
direct
   0.2500000000000000    0.2500000000000000    0.2500000000000000 K
   0.7500000000000000    0.7500000000000000    0.7500000000000000 K
   0.5000000000000000    0.5000000000000000    0.5000000000000000 K
   0.0000000000000000    0.0000000000000000    0.0000000000000000 Mo
