K3 Mo1
1.0
      4.8135873369       0.0000000000       2.7791259448
      1.6045291123       4.5382936637       2.7791259448
      0.0000000000       0.0000000000       5.5582518895
K Mo
3 1
direct
   0.2500000000000000    0.2500000000000000    0.2500000000000000 K
   0.7500000000000000    0.7500000000000000    0.7500000000000000 K
   0.5000000000000000    0.5000000000000000    0.5000000000000000 K
   0.0000000000000000    0.0000000000000000    0.0000000000000000 Mo
