K3 Mo1
1.0
      4.5304351406       0.0000000000       2.6156479480
      1.5101450469       4.2713352129       2.6156479480
      0.0000000000       0.0000000000       5.2312958960
K Mo
3 1
direct
   0.2500000000000000    0.2500000000000000    0.2500000000000000 K
   0.7500000000000000    0.7500000000000000    0.7500000000000000 K
   0.5000000000000000    0.5000000000000000    0.5000000000000000 K
   0.0000000000000000    0.0000000000000000    0.0000000000000000 Mo
