K3 Mo1
1.0
      5.0967395332       0.0000000000       2.9426039415
      1.6989131777       4.8052521145       2.9426039415
      0.0000000000       0.0000000000       5.8852078830
K Mo
3 1
direct
   0.2500000000000000    0.2500000000000000    0.2500000000000000 K
   0.7500000000000000    0.7500000000000000    0.7500000000000000 K
   0.5000000000000000    0.5000000000000000    0.5000000000000000 K
   0.0000000000000000    0.0000000000000000    0.0000000000000000 Mo
