K3 Mo1
1.0
      4.2472829444       0.0000000000       2.4521699513
      1.4157609815       4.0043767621       2.4521699513
      0.0000000000       0.0000000000       4.9043399025
K Mo
3 1
direct
   0.2500000000000000    0.2500000000000000    0.2500000000000000 K
   0.7500000000000000    0.7500000000000000    0.7500000000000000 K
   0.5000000000000000    0.5000000000000000    0.5000000000000000 K
   0.0000000000000000    0.0000000000000000    0.0000000000000000 Mo
