K3 Tc1
1.0
      4.9301236483       0.0000000000       2.8464082155
      1.6433745494       4.6481651518       2.8464082155
      0.0000000000       0.0000000000       5.6928164310
K Tc
3 1
direct
   0.2500000000000000    0.2500000000000000    0.2500000000000000 K
   0.7500000000000000    0.7500000000000000    0.7500000000000000 K
   0.5000000000000000    0.5000000000000000    0.5000000000000000 K
   0.0000000000000000    0.0000000000000000    0.0000000000000000 Tc
