K3 Tc1
1.0
      5.2040194066       0.0000000000       3.0045420053
      1.7346731355       4.9063965491       3.0045420053
      0.0000000000       0.0000000000       6.0090840105
K Tc
3 1
direct
   0.2500000000000000    0.2500000000000000    0.2500000000000000 K
   0.7500000000000000    0.7500000000000000    0.7500000000000000 K
   0.5000000000000000    0.5000000000000000    0.5000000000000000 K
   0.0000000000000000    0.0000000000000000    0.0000000000000000 Tc
