K3 Tc1
1.0
      4.3823321318       0.0000000000       2.5301406360
      1.4607773773       4.1317023571       2.5301406360
      0.0000000000       0.0000000000       5.0602812720
K Tc
3 1
direct
   0.2500000000000000    0.2500000000000000    0.2500000000000000 K
   0.7500000000000000    0.7500000000000000    0.7500000000000000 K
   0.5000000000000000    0.5000000000000000    0.5000000000000000 K
   0.0000000000000000    0.0000000000000000    0.0000000000000000 Tc
