K3 Tc1
1.0
      4.1084363736       0.0000000000       2.3720068463
      1.3694787912       3.8734709598       2.3720068463
      0.0000000000       0.0000000000       4.7440136925
K Tc
3 1
direct
   0.2500000000000000    0.2500000000000000    0.2500000000000000 K
   0.7500000000000000    0.7500000000000000    0.7500000000000000 K
   0.5000000000000000    0.5000000000000000    0.5000000000000000 K
   0.0000000000000000    0.0000000000000000    0.0000000000000000 Tc
