K3 Tc1
1.0
      4.6562278901       0.0000000000       2.6882744258
      1.5520759634       4.3899337544       2.6882744258
      0.0000000000       0.0000000000       5.3765488515
K Tc
3 1
direct
   0.2500000000000000    0.2500000000000000    0.2500000000000000 K
   0.7500000000000000    0.7500000000000000    0.7500000000000000 K
   0.5000000000000000    0.5000000000000000    0.5000000000000000 K
   0.0000000000000000    0.0000000000000000    0.0000000000000000 Tc
