Li3 Sm1
1.0
      3.7792626139       0.0000000000       2.1819582875
      1.2597542046       3.5631229629       2.1819582875
      0.0000000000       0.0000000000       4.3639165750
Li Sm
3 1
direct
   0.2500000000000000    0.2500000000000000    0.2500000000000000 Li
   0.7500000000000000    0.7500000000000000    0.7500000000000000 Li
   0.5000000000000000    0.5000000000000000    0.5000000000000000 Li
   0.0000000000000000    0.0000000000000000    0.0000000000000000 Sm
