Li3 Sm1
1.0
      3.3346434829       0.0000000000       1.9252573125
      1.1115478276       3.1439320261       1.9252573125
      0.0000000000       0.0000000000       3.8505146250
Li Sm
3 1
direct
   0.2500000000000000    0.2500000000000000    0.2500000000000000 Li
   0.7500000000000000    0.7500000000000000    0.7500000000000000 Li
   0.5000000000000000    0.5000000000000000    0.5000000000000000 Li
   0.0000000000000000    0.0000000000000000    0.0000000000000000 Sm
