Li3 Sm1
1.0
      4.0015721795       0.0000000000       2.3103087750
      1.3338573932       3.7727184313       2.3103087750
      0.0000000000       0.0000000000       4.6206175500
Li Sm
3 1
direct
   0.2500000000000000    0.2500000000000000    0.2500000000000000 Li
   0.7500000000000000    0.7500000000000000    0.7500000000000000 Li
   0.5000000000000000    0.5000000000000000    0.5000000000000000 Li
   0.0000000000000000    0.0000000000000000    0.0000000000000000 Sm
