Er2 Mn4
1.0
      3.9565907273       0.0000000000       2.2843387215
      1.3188635758       3.7303095116       2.2843387215
      0.0000000000       0.0000000000       4.5686774430
Er Mn
2 4
direct
   0.5000000000000000    0.5000000000000000    0.5000000000000000 Er
   0.7500000000000000    0.7500000000000000    0.7500000000000000 Er
   0.1250000000000000    0.1250000000000000    0.6250000000000000 Mn
   0.1250000000000000    0.1250000000000000    0.1250000000000000 Mn
   0.1250000000000000    0.6250000000000000    0.1250000000000000 Mn
   0.6250000000000000    0.1250000000000000    0.1250000000000000 Mn
