Er2 Mn4
1.0
      3.2971589394       0.0000000000       1.9036156013
      1.0990529798       3.1085912596       1.9036156013
      0.0000000000       0.0000000000       3.8072312025
Er Mn
2 4
direct
   0.5000000000000000    0.5000000000000000    0.5000000000000000 Er
   0.7500000000000000    0.7500000000000000    0.7500000000000000 Er
   0.1250000000000000    0.1250000000000000    0.6250000000000000 Mn
   0.1250000000000000    0.1250000000000000    0.1250000000000000 Mn
   0.1250000000000000    0.6250000000000000    0.1250000000000000 Mn
   0.6250000000000000    0.1250000000000000    0.1250000000000000 Mn
