Er2 Mn4
1.0
      3.7367801314       0.0000000000       2.1574310148
      1.2455933771       3.5230700943       2.1574310148
      0.0000000000       0.0000000000       4.3148620295
Er Mn
2 4
direct
   0.5000000000000000    0.5000000000000000    0.5000000000000000 Er
   0.7500000000000000    0.7500000000000000    0.7500000000000000 Er
   0.1250000000000000    0.1250000000000000    0.6250000000000000 Mn
   0.1250000000000000    0.1250000000000000    0.1250000000000000 Mn
   0.1250000000000000    0.6250000000000000    0.1250000000000000 Mn
   0.6250000000000000    0.1250000000000000    0.1250000000000000 Mn
