Er2 Mn4
1.0
      3.5169695354       0.0000000000       2.0305233080
      1.1723231785       3.3158306770       2.0305233080
      0.0000000000       0.0000000000       4.0610466160
Er Mn
2 4
direct
   0.5000000000000000    0.5000000000000000    0.5000000000000000 Er
   0.7500000000000000    0.7500000000000000    0.7500000000000000 Er
   0.1250000000000000    0.1250000000000000    0.6250000000000000 Mn
   0.1250000000000000    0.1250000000000000    0.1250000000000000 Mn
   0.1250000000000000    0.6250000000000000    0.1250000000000000 Mn
   0.6250000000000000    0.1250000000000000    0.1250000000000000 Mn
