Er2 Mn4
1.0
      4.1764013233       0.0000000000       2.4112464283
      1.3921337744       3.9375489289       2.4112464283
      0.0000000000       0.0000000000       4.8224928565
Er Mn
2 4
direct
   0.5000000000000000    0.5000000000000000    0.5000000000000000 Er
   0.7500000000000000    0.7500000000000000    0.7500000000000000 Er
   0.1250000000000000    0.1250000000000000    0.6250000000000000 Mn
   0.1250000000000000    0.1250000000000000    0.1250000000000000 Mn
   0.1250000000000000    0.6250000000000000    0.1250000000000000 Mn
   0.6250000000000000    0.1250000000000000    0.1250000000000000 Mn
