Th4 Zn2
1.0
      4.4427271212       0.0000000000       2.2920875379
      2.2247096125       4.8570405204       1.1532240034
      0.0000000000       0.0000000000       5.4653558400
Th Zn
4 2
direct
   0.6580213200000000    0.1840446700000000    0.5001216200000000 Th
   0.8419786800000000    0.4998783800000000    0.8159553300000000 Th
   0.3419786800000000    0.8159553300000000    0.4998783800000000 Th
   0.1580213200000000    0.5001216200000000    0.1840446700000000 Th
   0.7500000000000000    0.9999318600000000    0.0000681400000000 Zn
   0.2500000000000000    0.0000681400000000    0.9999318600000000 Zn
