Ho1 Zn1
1.0
      3.3516937460       0.0000000000       0.0000000000
     -0.0000000000       3.3516937460       0.0000000000
      0.0000000000       0.0000000000       3.3516937460
Ho Zn
1 1
direct
   0.0000000000000000    0.0000000000000000    0.0000000000000000 Ho
   0.5000000000000000    0.5000000000000000    0.5000000000000000 Zn
