Li2 Mg2
1.0
      4.2383333368       0.0000000000       2.0819923504
      3.5182876040       2.3632862309       2.0819923504
      0.0000000000       0.0000000000       4.2841653600
Li Mg
2 2
direct
   0.6251810000000000    0.6251810000000000    0.7084050000000000 Li
   0.3748190000000000    0.3748190000000000    0.2915950000000000 Li
   0.8763230000000000    0.8763230000000000    0.7934830000000000 Mg
   0.1236770000000000    0.1236770000000000    0.2065170000000000 Mg
