Li2 Mg2
1.0
      3.9734375032       0.0000000000       1.9518678285
      3.2983946288       2.2155808414       1.9518678285
      0.0000000000       0.0000000000       4.0164050250
Li Mg
2 2
direct
   0.6251810000000000    0.6251810000000000    0.7084050000000000 Li
   0.3748190000000000    0.3748190000000000    0.2915950000000000 Li
   0.8763230000000000    0.8763230000000000    0.7934830000000000 Mg
   0.1236770000000000    0.1236770000000000    0.2065170000000000 Mg
