K4 Ag8
1.0
      4.3779761025       0.0000000000       0.0000000000
     -2.1889891138       3.7914384627       0.0000000000
      0.0000000000       0.0000000000       7.3441350525
K Ag
4 8
direct
   0.3333333333333333    0.6666666666666666    0.0617748200000000 K
   0.6666666666666666    0.3333333333333333    0.5617748200000000 K
   0.6666666666666666    0.3333333333333333    0.9382251800000000 K
   0.3333333333333333    0.6666666666666666    0.4382251800000000 K
   0.0000000000000000    0.0000000000000000    0.0000000000000000 Ag
   0.0000000000000000    0.0000000000000000    0.5000000000000000 Ag
   0.8343084100000000    0.6686168200000000    0.2500000000000000 Ag
   0.1656915900000000    0.8343084100000000    0.7500000000000000 Ag
   0.6686168200000000    0.8343084100000000    0.7500000000000000 Ag
   0.3313831800000000    0.1656915900000000    0.2500000000000000 Ag
   0.8343084100000000    0.1656915900000000    0.2500000000000000 Ag
   0.1656915900000000    0.3313831800000000    0.7500000000000000 Ag
