Cu2 N2
1.0
      2.3340682148       0.0000000000       0.4996135589
      1.2347853888       1.9807017632       0.4996135589
      0.0000000000       0.0000000000       4.8852309840
Cu N
2 2
direct
   0.3834760000000000    0.3834760000000000    0.3392090000000000 Cu
   0.6165240000000000    0.6165240000000000    0.6607910000000000 Cu
   0.9736680000000000    0.9736680000000000    0.0996570000000000 N
   0.0263320000000000    0.0263320000000000    0.9003430000000000 N
