Cu2 N2
1.0
      2.6258267416       0.0000000000       0.5620652538
      1.3891335624       2.2282894836       0.5620652538
      0.0000000000       0.0000000000       5.4958848570
Cu N
2 2
direct
   0.3834760000000000    0.3834760000000000    0.3392090000000000 Cu
   0.6165240000000000    0.6165240000000000    0.6607910000000000 Cu
   0.9736680000000000    0.9736680000000000    0.0996570000000000 N
   0.0263320000000000    0.0263320000000000    0.9003430000000000 N
