Cu2 N2
1.0
      2.1881889513       0.0000000000       0.4683877115
      1.1576113020       1.8569079030       0.4683877115
      0.0000000000       0.0000000000       4.5799040475
Cu N
2 2
direct
   0.3834760000000000    0.3834760000000000    0.3392090000000000 Cu
   0.6165240000000000    0.6165240000000000    0.6607910000000000 Cu
   0.9736680000000000    0.9736680000000000    0.0996570000000000 N
   0.0263320000000000    0.0263320000000000    0.9003430000000000 N
