Cu2 N2
1.0
      2.4799474782       0.0000000000       0.5308394064
      1.3119594756       2.1044956234       0.5308394064
      0.0000000000       0.0000000000       5.1905579205
Cu N
2 2
direct
   0.3834760000000000    0.3834760000000000    0.3392090000000000 Cu
   0.6165240000000000    0.6165240000000000    0.6607910000000000 Cu
   0.9736680000000000    0.9736680000000000    0.0996570000000000 N
   0.0263320000000000    0.0263320000000000    0.9003430000000000 N
