Cu2 N2
1.0
      2.7717060050       0.0000000000       0.5932911012
      1.4663076492       2.3520833438       0.5932911012
      0.0000000000       0.0000000000       5.8012117935
Cu N
2 2
direct
   0.3834760000000000    0.3834760000000000    0.3392090000000000 Cu
   0.6165240000000000    0.6165240000000000    0.6607910000000000 Cu
   0.9736680000000000    0.9736680000000000    0.0996570000000000 N
   0.0263320000000000    0.0263320000000000    0.9003430000000000 N
