K3 Ru1
1.0
      3.8741601377       0.0000000000      -2.4203734137
     -1.1906139666       3.6866726401      -2.4203734137
      0.0000000000       0.0000000000       4.5680766450
K Ru
3 1
direct
   0.7500000000000000    0.2500000000000000    0.5000000000000000 K
   0.2500000000000000    0.7500000000000000    0.5000000000000000 K
   0.5000000000000000    0.5000000000000000    0.0000000000000000 K
   0.0000000000000000    0.0000000000000000    0.0000000000000000 Ru
