K3 Ru1
1.0
      4.6489921653       0.0000000000      -2.9044480965
     -1.4287367600       4.4240071681      -2.9044480965
      0.0000000000       0.0000000000       5.4816919740
K Ru
3 1
direct
   0.7500000000000000    0.2500000000000000    0.5000000000000000 K
   0.2500000000000000    0.7500000000000000    0.5000000000000000 K
   0.5000000000000000    0.5000000000000000    0.0000000000000000 K
   0.0000000000000000    0.0000000000000000    0.0000000000000000 Ru
