K3 Ru1
1.0
      4.3907148227       0.0000000000      -2.7430898689
     -1.3493624955       4.1782289921      -2.7430898689
      0.0000000000       0.0000000000       5.1771535310
K Ru
3 1
direct
   0.7500000000000000    0.2500000000000000    0.5000000000000000 K
   0.2500000000000000    0.7500000000000000    0.5000000000000000 K
   0.5000000000000000    0.5000000000000000    0.0000000000000000 K
   0.0000000000000000    0.0000000000000000    0.0000000000000000 Ru
