K3 Ru1
1.0
      4.9072695078       0.0000000000      -3.0658063241
     -1.5081110244       4.6697853441      -3.0658063241
      0.0000000000       0.0000000000       5.7862304170
K Ru
3 1
direct
   0.7500000000000000    0.2500000000000000    0.5000000000000000 K
   0.2500000000000000    0.7500000000000000    0.5000000000000000 K
   0.5000000000000000    0.5000000000000000    0.0000000000000000 K
   0.0000000000000000    0.0000000000000000    0.0000000000000000 Ru
