K3 Ru1
1.0
      4.1324374802       0.0000000000      -2.5817316413
     -1.2699882311       3.9324508161      -2.5817316413
      0.0000000000       0.0000000000       4.8726150880
K Ru
3 1
direct
   0.7500000000000000    0.2500000000000000    0.5000000000000000 K
   0.2500000000000000    0.7500000000000000    0.5000000000000000 K
   0.5000000000000000    0.5000000000000000    0.0000000000000000 K
   0.0000000000000000    0.0000000000000000    0.0000000000000000 Ru
