Cu2 Ge6
1.0
      4.3736632350       0.0000000000       0.0000000000
     -2.1868308540       3.7877039099       0.0000000000
      0.0000000000       0.0000000000       3.5241427500
Cu Ge
2 6
direct
   0.6666666666666666    0.3333333333333333    0.2500000000000000 Cu
   0.3333333333333333    0.6666666666666666    0.7500000000000000 Cu
   0.3468810000000000    0.1734400000000000    0.7500000000000000 Ge
   0.8265600000000000    0.1734400000000000    0.7500000000000000 Ge
   0.8265600000000000    0.6531190000000000    0.7500000000000000 Ge
   0.1734400000000000    0.8265600000000000    0.2500000000000000 Ge
   0.1734400000000000    0.3468810000000000    0.2500000000000000 Ge
   0.6531190000000000    0.8265600000000000    0.2500000000000000 Ge
