Cu2 Ge6
1.0
      4.6652407840       0.0000000000       0.0000000000
     -2.3326195776       4.0402175039       0.0000000000
      0.0000000000       0.0000000000       3.7590856000
Cu Ge
2 6
direct
   0.6666666666666666    0.3333333333333333    0.2500000000000000 Cu
   0.3333333333333333    0.6666666666666666    0.7500000000000000 Cu
   0.3468810000000000    0.1734400000000000    0.7500000000000000 Ge
   0.8265600000000000    0.1734400000000000    0.7500000000000000 Ge
   0.8265600000000000    0.6531190000000000    0.7500000000000000 Ge
   0.1734400000000000    0.8265600000000000    0.2500000000000000 Ge
   0.1734400000000000    0.3468810000000000    0.2500000000000000 Ge
   0.6531190000000000    0.8265600000000000    0.2500000000000000 Ge
