K1 Se1
1.0
      3.0980347143       0.0000000000       1.7886511763
      1.0326782381       2.9208551398       1.7886511763
      0.0000000000       0.0000000000       3.5773023525
K Se
1 1
direct
   0.0000000000000000    0.0000000000000000    0.0000000000000000 K
   0.5000000000000000    0.5000000000000000    0.5000000000000000 Se
