K1 Se1
1.0
      3.3045703619       0.0000000000       1.9078945880
      1.1015234540       3.1155788157       1.9078945880
      0.0000000000       0.0000000000       3.8157891760
K Se
1 1
direct
   0.0000000000000000    0.0000000000000000    0.0000000000000000 K
   0.5000000000000000    0.5000000000000000    0.5000000000000000 Se
