K1 Se1
1.0
      3.9241773048       0.0000000000       2.2656248233
      1.3080591016       3.6997498437       2.2656248233
      0.0000000000       0.0000000000       4.5312496465
K Se
1 1
direct
   0.0000000000000000    0.0000000000000000    0.0000000000000000 K
   0.5000000000000000    0.5000000000000000    0.5000000000000000 Se
