K1 Se1
1.0
      3.5111060095       0.0000000000       2.0271379998
      1.1703686698       3.3103024917       2.0271379998
      0.0000000000       0.0000000000       4.0542759995
K Se
1 1
direct
   0.0000000000000000    0.0000000000000000    0.0000000000000000 K
   0.5000000000000000    0.5000000000000000    0.5000000000000000 Se
