K1 Se1
1.0
      3.7176416571       0.0000000000       2.1463814115
      1.2392138857       3.5050261677       2.1463814115
      0.0000000000       0.0000000000       4.2927628230
K Se
1 1
direct
   0.0000000000000000    0.0000000000000000    0.0000000000000000 K
   0.5000000000000000    0.5000000000000000    0.5000000000000000 Se
