Li1 Mg3
1.0
      3.9699621000       0.0000000000       0.0000000000
     -0.0000000000       3.9699621000       0.0000000000
      0.0000000000       0.0000000000       3.9699621000
Li Mg
1 3
direct
   0.0000000000000000    0.0000000000000000    0.0000000000000000 Li
   0.5000000000000000    0.5000000000000000    0.0000000000000000 Mg
   0.5000000000000000    0.0000000000000000    0.5000000000000000 Mg
   0.0000000000000000    0.5000000000000000    0.5000000000000000 Mg
