Ce3 Cu1
1.0
      3.8981467500       0.0000000000       0.0000000000
     -0.0000000000       3.8981467500       0.0000000000
      0.0000000000       0.0000000000       3.8981467500
Ce Cu
3 1
direct
   0.0000000000000000    0.5000000000000000    0.5000000000000000 Ce
   0.5000000000000000    0.0000000000000000    0.5000000000000000 Ce
   0.5000000000000000    0.5000000000000000    0.0000000000000000 Ce
   0.0000000000000000    0.0000000000000000    0.0000000000000000 Cu
