Ce3 Cu1
1.0
      4.1274495000       0.0000000000       0.0000000000
     -0.0000000000       4.1274495000       0.0000000000
      0.0000000000       0.0000000000       4.1274495000
Ce Cu
3 1
direct
   0.0000000000000000    0.5000000000000000    0.5000000000000000 Ce
   0.5000000000000000    0.0000000000000000    0.5000000000000000 Ce
   0.5000000000000000    0.5000000000000000    0.0000000000000000 Ce
   0.0000000000000000    0.0000000000000000    0.0000000000000000 Cu
