Lu1 Zn12
1.0
      3.9726692549       0.0000000000       1.6170667723
      1.9863346253       5.2686340505       0.8085333846
      0.0000000000       0.0000000000       5.6883878415
Lu Zn
1 12
direct
   0.0000000000000000    0.0000000000000000    0.0000000000000000 Lu
   0.0000000000000000    0.0000000000000000    0.5000000000000000 Zn
   0.5000000000000000    0.0000000000000000    0.5000000000000000 Zn
   0.5000000000000000    0.5000000000000000    0.0000000000000000 Zn
   0.0000000000000000    0.5000000000000000    0.0000000000000000 Zn
   0.0000000000000000    0.3538163300000000    0.6461836700000000 Zn
   0.0000000000000000    0.6461836700000000    0.3538163300000000 Zn
   0.6461836700000000    0.3538163300000000    0.3538163300000000 Zn
   0.3538163300000000    0.6461836700000000    0.6461836700000000 Zn
   0.5000000000000000    0.7848916100000000    0.2151083900000000 Zn
   0.5000000000000000    0.2151083900000000    0.7848916100000000 Zn
   0.7151083900000000    0.7848916100000000    0.7848916100000000 Zn
   0.2848916100000000    0.2151083900000000    0.2151083900000000 Zn
