Li2 Mg4
1.0
      4.5849590759       0.0000000000       1.2292395538
      3.8806353764       2.4418269396       1.2292395538
      0.0000000000       0.0000000000       5.8717410400
Li Mg
2 4
direct
   0.6133130600000000    0.6133130600000000    0.2736357200000000 Li
   0.9466296600000000    0.9466296600000000    0.6066798400000000 Li
   0.9989622600000000    0.9989622600000000    0.0067066000000000 Mg
   0.3303788500000000    0.3303788500000000    0.3400834200000000 Mg
   0.6626576900000000    0.6626576900000000    0.6678773400000000 Mg
   0.2813934800000000    0.2813934800000000    0.9383490799999999 Mg
