Li2 Mg4
1.0
      5.4446389026       0.0000000000       1.4597219701
      4.6082545095       2.8996694907       1.4597219701
      0.0000000000       0.0000000000       6.9726924850
Li Mg
2 4
direct
   0.6133130600000000    0.6133130600000000    0.2736357200000000 Li
   0.9466296600000000    0.9466296600000000    0.6066798400000000 Li
   0.9989622600000000    0.9989622600000000    0.0067066000000000 Mg
   0.3303788500000000    0.3303788500000000    0.3400834200000000 Mg
   0.6626576900000000    0.6626576900000000    0.6678773400000000 Mg
   0.2813934800000000    0.2813934800000000    0.9383490799999999 Mg
