K2 Ag1
1.0
      5.0940117585       0.0000000000       0.0000000000
     -2.5470050400       4.4115440746       0.0000000000
      0.0000000000       0.0000000000       3.3285150000
K Ag
2 1
direct
   0.3333333333333333    0.6666666666666666    0.5000000000000000 K
   0.6666666666666666    0.3333333333333333    0.5000000000000000 K
   0.0000000000000000    0.0000000000000000    0.0000000000000000 Ag
