K2 Ag1
1.0
      4.7943640080       0.0000000000       0.0000000000
     -2.3971812141       4.1520414820       0.0000000000
      0.0000000000       0.0000000000       3.1327200000
K Ag
2 1
direct
   0.3333333333333333    0.6666666666666666    0.5000000000000000 K
   0.6666666666666666    0.3333333333333333    0.5000000000000000 K
   0.0000000000000000    0.0000000000000000    0.0000000000000000 Ag
