K2 Ag1
1.0
      4.4947162575       0.0000000000       0.0000000000
     -2.2473573882       3.8925388893       0.0000000000
      0.0000000000       0.0000000000       2.9369250000
K Ag
2 1
direct
   0.3333333333333333    0.6666666666666666    0.5000000000000000 K
   0.6666666666666666    0.3333333333333333    0.5000000000000000 K
   0.0000000000000000    0.0000000000000000    0.0000000000000000 Ag
