K2 Ag1
1.0
      5.6933072595       0.0000000000       0.0000000000
     -2.8466526918       4.9305492598       0.0000000000
      0.0000000000       0.0000000000       3.7201050000
K Ag
2 1
direct
   0.3333333333333333    0.6666666666666666    0.5000000000000000 K
   0.6666666666666666    0.3333333333333333    0.5000000000000000 K
   0.0000000000000000    0.0000000000000000    0.0000000000000000 Ag
