K2 Ag1
1.0
      5.3936595090       0.0000000000       0.0000000000
     -2.6968288659       4.6710466672       0.0000000000
      0.0000000000       0.0000000000       3.5243100000
K Ag
2 1
direct
   0.3333333333333333    0.6666666666666666    0.5000000000000000 K
   0.6666666666666666    0.3333333333333333    0.5000000000000000 K
   0.0000000000000000    0.0000000000000000    0.0000000000000000 Ag
