Mn2 O2
1.0
      2.8605333303       0.0000000000       0.8618580062
      1.5604283062       2.5480137486       0.0000074306
      0.0000000000       0.0000000000       5.1752614010
Mn O
2 2
direct
   0.0000000000000000    0.0000000000000000    0.0000000000000000 Mn
   0.0000000000000000    0.5000000000000000    0.5000000000000000 Mn
   0.4999990000000000    0.7500010000000000    0.2500010000000000 O
   0.5000010000000000    0.2499990000000000    0.7499990000000000 O
