Mn2 O2
1.0
      2.2583157871       0.0000000000       0.6804142154
      1.2319170838       2.0115898015       0.0000058662
      0.0000000000       0.0000000000       4.0857326850
Mn O
2 2
direct
   0.0000000000000000    0.0000000000000000    0.0000000000000000 Mn
   0.0000000000000000    0.5000000000000000    0.5000000000000000 Mn
   0.4999990000000000    0.7500010000000000    0.2500010000000000 O
   0.5000010000000000    0.2499990000000000    0.7499990000000000 O
