Sr2 Zn26
1.0
      7.0446302266       0.0000000000       4.0672213659
      2.3482103994       6.6417415379       4.0672213686
      0.0000000000       0.0000000000       8.1344408160
Sr Zn
2 26
direct
   0.7500000000000000    0.7500000000000000    0.7500000000000000 Sr
   0.2500000000000000    0.2500000000000000    0.2500000000000000 Sr
   0.7991086700000000    0.5590264500000000    0.4409735500000000 Zn
   0.9409735500000000    0.7008913300000000    0.0590264500000000 Zn
   0.4409735500000000    0.7991086700000000    0.5590264500000000 Zn
   0.5590264500000000    0.4409735500000000    0.7991086700000000 Zn
   0.7991086700000000    0.4409735500000000    0.2008913300000000 Zn
   0.0590264500000000    0.9409735500000000    0.7008913300000000 Zn
   0.5590264500000000    0.2008913300000000    0.4409735500000000 Zn
   0.9409735500000000    0.2991086700000000    0.7008913300000000 Zn
   0.2008913300000000    0.7991086700000000    0.4409735500000000 Zn
   0.7008913300000000    0.0590264500000000    0.9409735500000000 Zn
   0.2991086700000000    0.9409735500000000    0.0590264500000000 Zn
   0.2991086700000000    0.7008913300000000    0.9409735500000000 Zn
   0.2991086700000000    0.0590264500000000    0.7008913300000000 Zn
   0.4409735500000000    0.5590264500000000    0.2008913300000000 Zn
   0.4409735500000000    0.2008913300000000    0.7991086700000000 Zn
   0.7008913300000000    0.9409735500000000    0.2991086700000000 Zn
   0.7008913300000000    0.2991086700000000    0.0590264500000000 Zn
   0.7991086700000000    0.2008913300000000    0.5590264500000000 Zn
   0.9409735500000000    0.0590264500000000    0.2991086700000000 Zn
   0.5590264500000000    0.7991086700000000    0.2008913300000000 Zn
   0.0590264500000000    0.7008913300000000    0.2991086700000000 Zn
   0.2008913300000000    0.5590264500000000    0.7991086700000000 Zn
   0.0590264500000000    0.2991086700000000    0.9409735500000000 Zn
   0.2008913300000000    0.4409735500000000    0.5590264500000000 Zn
   0.0000000000000000    0.0000000000000000    0.0000000000000000 Zn
   0.5000000000000000    0.5000000000000000    0.5000000000000000 Zn
