Cu2 N1
1.0
      2.4841981000       0.0000000000       0.0000000000
     -0.0000000000       2.4841981000       0.0000000000
      0.0000000000       0.0000000000       3.2001522500
Cu N
2 1
direct
   0.5000000000000000    0.5000000000000000    0.5000000000000000 Cu
   0.0000000000000000    0.0000000000000000    0.0000000000000000 Cu
   0.5000000000000000    0.5000000000000000    0.0000000000000000 N
