Na1 Cu3
1.0
      2.8694190000       0.0000000000       0.0000000000
     -0.0000000000       2.8694190000       0.0000000000
      0.0000000000       0.0000000000       2.8694190000
Na Cu
1 3
direct
   0.0000000000000000    0.0000000000000000    0.0000000000000000 Na
   0.0000000000000000    0.5000000000000000    0.5000000000000000 Cu
   0.5000000000000000    0.0000000000000000    0.5000000000000000 Cu
   0.5000000000000000    0.5000000000000000    0.0000000000000000 Cu
