K2 C4
1.0
      4.1629646000       0.0000000000       0.0000000000
     -0.0000000000       4.1629646000       0.0000000000
      0.0000000000       0.0000000000       7.0781792500
K C
2 4
direct
   0.0000000000000000    0.5000000000000000    0.2457970000000000 K
   0.5000000000000000    0.0000000000000000    0.7542030000000000 K
   0.0000000000000000    0.5000000000000000    0.6614750000000000 C
   0.5000000000000000    0.0000000000000000    0.3385250000000000 C
   0.0000000000000000    0.5000000000000000    0.8313320000000000 C
   0.5000000000000000    0.0000000000000000    0.1686680000000000 C
