Ti4 Mn8
1.0
      3.8143552350       0.0000000000       0.0000033926
     -1.9071856243       3.3033412823      -0.0000016963
      0.0000000000       0.0000000000       5.7937900875
Ti Mn
4 8
direct
   0.3333333333333333    0.6666666666666666    0.4392721400000000 Ti
   0.6666666666666666    0.3333333333333333    0.9393021300000000 Ti
   0.6666666666666666    0.3333333333333333    0.5607278600000000 Ti
   0.3333333333333333    0.6666666666666666    0.0606978700000000 Ti
   0.6585594000000000    0.8292802000000000    0.7497944000000000 Mn
   0.3414406000000000    0.1707198000000000    0.2502056000000000 Mn
   0.8292802000000000    0.1707178000000000    0.2502056000000000 Mn
   0.1707198000000000    0.3414406000000000    0.7497944000000000 Mn
   0.1707198000000000    0.8292822000000000    0.7497944000000000 Mn
   0.8292802000000000    0.6585594000000000    0.2502056000000000 Mn
   0.0000000000000000    0.0000000000000000    0.5000000000000000 Mn
   0.0000000000000000    0.0000000000000000    0.0000000000000000 Mn
