K6 Ho2
1.0
      7.7353344000       0.0000000000       0.0000000000
     -3.8676672023       6.6989960958       0.0000000000
      0.0000000000       0.0000000000       6.3370467000
K Ho
6 2
direct
   0.1723690000000000    0.3447390000000000    0.2500000000000000 K
   0.6552610000000000    0.8276310000000000    0.2500000000000000 K
   0.1723690000000000    0.8276310000000000    0.2500000000000000 K
   0.8276310000000000    0.6552610000000000    0.7500000000000000 K
   0.3447390000000000    0.1723690000000000    0.7500000000000000 K
   0.8276310000000000    0.1723690000000000    0.7500000000000000 K
   0.3333333333333333    0.6666666666666666    0.7500000000000000 Ho
   0.6666666666666666    0.3333333333333333    0.2500000000000000 Ho
