K6 Ho2
1.0
      6.4461120000       0.0000000000       0.0000000000
     -3.2230560019       5.5824967465       0.0000000000
      0.0000000000       0.0000000000       5.2808722500
K Ho
6 2
direct
   0.1723690000000000    0.3447390000000000    0.2500000000000000 K
   0.6552610000000000    0.8276310000000000    0.2500000000000000 K
   0.1723690000000000    0.8276310000000000    0.2500000000000000 K
   0.8276310000000000    0.6552610000000000    0.7500000000000000 K
   0.3447390000000000    0.1723690000000000    0.7500000000000000 K
   0.8276310000000000    0.1723690000000000    0.7500000000000000 K
   0.3333333333333333    0.6666666666666666    0.7500000000000000 Ho
   0.6666666666666666    0.3333333333333333    0.2500000000000000 Ho
