Tm2 Zn4
1.0
      3.0215536052       0.0000000000       1.3027412855
      1.3901903273       3.8037036992       0.9310571678
      0.0000000000       0.0000000000       4.1554374975
Tm Zn
2 4
direct
   0.4704571400000000    0.2795428600000000    0.7795418600000000 Tm
   0.5295418600000000    0.7204581400000000    0.2204581400000000 Tm
   0.1660386500000000    0.2909738300000000    0.3769488600000000 Zn
   0.8339613500000000    0.1230511400000000    0.2090261700000000 Zn
   0.8339613500000000    0.7090261700000000    0.6230511399999999 Zn
   0.1660386500000000    0.8769488600000001    0.7909738300000000 Zn
