K2 N6
1.0
      5.7706361264       0.0000000000      -3.7837770137
     -1.6833676177       5.5196480655      -3.7837770137
      0.0000000000       0.0000000000       6.9005224290
K N
2 6
direct
   0.5000000000000000    0.5000000000000000    0.0000000000000000 K
   0.0000000000000000    0.0000000000000000    0.0000000000000000 K
   0.9424450000000000    0.5575550000000000    0.5000000000000000 N
   0.0575550000000000    0.4424450000000000    0.5000000000000000 N
   0.4424450000000000    0.9424450000000000    0.3848890000000000 N
   0.7500000000000000    0.7500000000000000    0.0000000000000000 N
   0.2500000000000000    0.2500000000000000    0.0000000000000000 N
   0.5575550000000000    0.0575550000000000    0.6151110000000000 N
