K2 N6
1.0
      4.5557653630       0.0000000000      -2.9871923793
     -1.3289744351       4.3576168938      -2.9871923793
      0.0000000000       0.0000000000       5.4477808650
K N
2 6
direct
   0.5000000000000000    0.5000000000000000    0.0000000000000000 K
   0.0000000000000000    0.0000000000000000    0.0000000000000000 K
   0.9424450000000000    0.5575550000000000    0.5000000000000000 N
   0.0575550000000000    0.4424450000000000    0.5000000000000000 N
   0.4424450000000000    0.9424450000000000    0.3848890000000000 N
   0.7500000000000000    0.7500000000000000    0.0000000000000000 N
   0.2500000000000000    0.2500000000000000    0.0000000000000000 N
   0.5575550000000000    0.0575550000000000    0.6151110000000000 N
