Li1 O3
1.0
      2.9294630050       0.0000000000      -0.6850674956
     -0.7418580761       2.0500754314      -2.0731397184
      0.0000000000       0.0000000000       3.0084997875
Li O
1 3
direct
   0.4833700000000000    0.4833700000000000    0.0000000000000000 Li
   0.9851810000000000    0.9851810000000000    0.0000000000000000 O
   0.3518800000000000    0.1256240000000000    0.2262560000000000 O
   0.8993679999999999    0.1256240000000000    0.7737440000000000 O
