Li1 O3
1.0
      3.7106531397       0.0000000000      -0.8677521611
     -0.9396868964       2.5967622131      -2.6259769766
      0.0000000000       0.0000000000       3.8107663975
Li O
1 3
direct
   0.4833700000000000    0.4833700000000000    0.0000000000000000 Li
   0.9851810000000000    0.9851810000000000    0.0000000000000000 O
   0.3518800000000000    0.1256240000000000    0.2262560000000000 O
   0.8993679999999999    0.1256240000000000    0.7737440000000000 O
