Li3 Ga1
1.0
      2.7829231057       0.0000000000      -2.1577751712
     -0.6682277015       2.7015056452      -2.1577751712
      0.0000000000       0.0000000000       3.5214563325
Li Ga
3 1
direct
   0.7499990000000000    0.2499990000000000    0.5000000000000000 Li
   0.2499990000000000    0.7499990000000000    0.5000000000000000 Li
   0.5000000000000000    0.5000000000000000    0.0000000000000000 Li
   0.0000000000000000    0.0000000000000000    0.0000000000000000 Ga
