Li3 Ga1
1.0
      3.5250359339       0.0000000000      -2.7331818835
     -0.8464217553       3.4219071506      -2.7331818835
      0.0000000000       0.0000000000       4.4605113545
Li Ga
3 1
direct
   0.7499990000000000    0.2499990000000000    0.5000000000000000 Li
   0.2499990000000000    0.7499990000000000    0.5000000000000000 Li
   0.5000000000000000    0.5000000000000000    0.0000000000000000 Li
   0.0000000000000000    0.0000000000000000    0.0000000000000000 Ga
