Li3 Mg3
1.0
      2.6475360975       0.0000000000       0.0000000000
     -1.3237667970       2.2928342406       0.0000000000
      0.0000000000       0.0000000000      12.8935038255
Li Mg
3 3
direct
   0.3333333333333333    0.6666666666666666    0.8306261600000000 Li
   0.0000000000000000    0.0000000000000000    0.6681340800000000 Li
   0.3333333333333333    0.6666666666666666    0.1667762500000000 Li
   0.0000000000000000    0.0000000000000000    0.0015725800000000 Mg
   0.3333333333333333    0.6666666666666666    0.5025336300000000 Mg
   0.0000000000000000    0.0000000000000000    0.3303552900000000 Mg
