Yb3 Cu1
1.0
      3.8792367660       0.0000000000       0.0000000000
     -0.0000000000       3.8792367660       0.0000000000
      0.0000000000       0.0000000000       3.8792367660
Yb Cu
3 1
direct
   0.0000000000000000    0.5000000000000000    0.5000000000000000 Yb
   0.5000000000000000    0.0000000000000000    0.5000000000000000 Yb
   0.5000000000000000    0.5000000000000000    0.0000000000000000 Yb
   0.0000000000000000    0.0000000000000000    0.0000000000000000 Cu
