Yb3 Cu1
1.0
      3.4228559700       0.0000000000       0.0000000000
     -0.0000000000       3.4228559700       0.0000000000
      0.0000000000       0.0000000000       3.4228559700
Yb Cu
3 1
direct
   0.0000000000000000    0.5000000000000000    0.5000000000000000 Yb
   0.5000000000000000    0.0000000000000000    0.5000000000000000 Yb
   0.5000000000000000    0.5000000000000000    0.0000000000000000 Yb
   0.0000000000000000    0.0000000000000000    0.0000000000000000 Cu
