Yb3 Cu1
1.0
      4.3356175620       0.0000000000       0.0000000000
     -0.0000000000       4.3356175620       0.0000000000
      0.0000000000       0.0000000000       4.3356175620
Yb Cu
3 1
direct
   0.0000000000000000    0.5000000000000000    0.5000000000000000 Yb
   0.5000000000000000    0.0000000000000000    0.5000000000000000 Yb
   0.5000000000000000    0.5000000000000000    0.0000000000000000 Yb
   0.0000000000000000    0.0000000000000000    0.0000000000000000 Cu
