Zr2 Mn4
1.0
      3.8488666066       0.0000000000       2.3309752401
      1.2184815797       3.6508523337       2.3309725200
      0.0000000000       0.0000000000       4.3428586835
Zr Mn
2 4
direct
   0.3743608000000000    0.3743608000000000    0.3769169800000000 Zr
   0.6256392000000000    0.6256392000000000    0.6230830200000000 Zr
   0.0000000000000000    0.0000000000000000    0.0000000000000000 Mn
   0.0000000000000000    0.0000000000000000    0.5000000000000000 Mn
   0.5000000000000000    0.0000000000000000    0.0000000000000000 Mn
   0.0000000000000000    0.5000000000000000    0.0000000000000000 Mn
