Zr2 Mn4
1.0
      4.3016744427       0.0000000000       2.6052076213
      1.3618323538       4.0803643729       2.6052045811
      0.0000000000       0.0000000000       4.8537832345
Zr Mn
2 4
direct
   0.3743608000000000    0.3743608000000000    0.3769169800000000 Zr
   0.6256392000000000    0.6256392000000000    0.6230830200000000 Zr
   0.0000000000000000    0.0000000000000000    0.0000000000000000 Mn
   0.0000000000000000    0.0000000000000000    0.5000000000000000 Mn
   0.5000000000000000    0.0000000000000000    0.0000000000000000 Mn
   0.0000000000000000    0.5000000000000000    0.0000000000000000 Mn
