Zr2 Mn4
1.0
      3.6224626886       0.0000000000       2.1938590495
      1.1468061926       3.4360963141       2.1938564894
      0.0000000000       0.0000000000       4.0873964080
Zr Mn
2 4
direct
   0.3743608000000000    0.3743608000000000    0.3769169800000000 Zr
   0.6256392000000000    0.6256392000000000    0.6230830200000000 Zr
   0.0000000000000000    0.0000000000000000    0.0000000000000000 Mn
   0.0000000000000000    0.0000000000000000    0.5000000000000000 Mn
   0.5000000000000000    0.0000000000000000    0.0000000000000000 Mn
   0.0000000000000000    0.5000000000000000    0.0000000000000000 Mn
