Zr2 Mn4
1.0
      4.0752705246       0.0000000000       2.4680914307
      1.2901569667       3.8656083533       2.4680885506
      0.0000000000       0.0000000000       4.5983209590
Zr Mn
2 4
direct
   0.3743608000000000    0.3743608000000000    0.3769169800000000 Zr
   0.6256392000000000    0.6256392000000000    0.6230830200000000 Zr
   0.0000000000000000    0.0000000000000000    0.0000000000000000 Mn
   0.0000000000000000    0.0000000000000000    0.5000000000000000 Mn
   0.5000000000000000    0.0000000000000000    0.0000000000000000 Mn
   0.0000000000000000    0.5000000000000000    0.0000000000000000 Mn
