Zr2 Mn4
1.0
      3.3960587705       0.0000000000       2.0567428589
      1.0751308056       3.2213402944       2.0567404588
      0.0000000000       0.0000000000       3.8319341325
Zr Mn
2 4
direct
   0.3743608000000000    0.3743608000000000    0.3769169800000000 Zr
   0.6256392000000000    0.6256392000000000    0.6230830200000000 Zr
   0.0000000000000000    0.0000000000000000    0.0000000000000000 Mn
   0.0000000000000000    0.0000000000000000    0.5000000000000000 Mn
   0.5000000000000000    0.0000000000000000    0.0000000000000000 Mn
   0.0000000000000000    0.5000000000000000    0.0000000000000000 Mn
