Zn1 Au1
1.0
      2.3625393825       0.0000000000       0.0000000000
     -0.0000000000       2.3625393825       0.0000000000
      0.0000000000       0.0000000000       2.3625393825
Zn Au
1 1
direct
   0.5000000000000000    0.5000000000000000    0.5000000000000000 Zn
   0.0000000000000000    0.0000000000000000    0.0000000000000000 Au
