Cu4 Sb2
1.0
      3.4172528240       0.0000000000       0.0000000000
     -0.0000000000       3.4172528240       0.0000000000
      0.0000000000       0.0000000000       5.0942576210
Cu Sb
4 2
direct
   0.7500000000000000    0.2500000000000000    0.0000000000000000 Cu
   0.2500000000000000    0.7500000000000000    0.0000000000000000 Cu
   0.2500000000000000    0.2500000000000000    0.2621431700000000 Cu
   0.7500000000000000    0.7500000000000000    0.7378568300000000 Cu
   0.2500000000000000    0.2500000000000000    0.7019222100000000 Sb
   0.7500000000000000    0.7500000000000000    0.2980777900000000 Sb
