Li1 Ir3
1.0
      1.9421665179       0.0000000000      -0.5278443482
     -0.4318810534       3.0871034065      -1.5907143151
      0.0000000000       0.0000000000       3.8465949750
Li Ir
1 3
direct
   0.9987137100000000    0.0166478000000000    0.0001639900000000 Li
   0.2410434500000000    0.9335446200000000    0.4805398600000000 Ir
   0.7596789500000000    0.4528927000000000    0.5193503900000001 Ir
   0.5005658800000000    0.5009148800000000    0.9999437600000000 Ir
