Cu6 As2
1.0
      3.9492407700       0.0000000000       0.0000000000
     -1.9746204298       3.4201428066       0.0000000000
      0.0000000000       0.0000000000       3.1994835225
Cu As
6 2
direct
   0.1625192900000000    0.3250385800000000    0.2500000000000000 Cu
   0.6749614200000000    0.8374807100000000    0.2500000000000000 Cu
   0.1625192900000000    0.8374807100000000    0.2500000000000000 Cu
   0.8374807100000000    0.6749614200000000    0.7500000000000000 Cu
   0.3250385800000000    0.1625192900000000    0.7500000000000000 Cu
   0.8374807100000000    0.1625192900000000    0.7500000000000000 Cu
   0.3333333333333333    0.6666666666666666    0.7500000000000000 As
   0.6666666666666666    0.3333333333333333    0.2500000000000000 As
