K3 Re1
1.0
      5.1387675677       0.0000000000       2.9668688385
      1.7129225226       4.8448765254       2.9668688385
      0.0000000000       0.0000000000       5.9337376770
K Re
3 1
direct
   0.2500000000000000    0.2500000000000000    0.2500000000000000 K
   0.7500000000000000    0.7500000000000000    0.7500000000000000 K
   0.5000000000000000    0.5000000000000000    0.5000000000000000 K
   0.0000000000000000    0.0000000000000000    0.0000000000000000 Re
