K3 Re1
1.0
      4.0569217640       0.0000000000       2.3422648725
      1.3523072547       3.8249025200       2.3422648725
      0.0000000000       0.0000000000       4.6845297450
K Re
3 1
direct
   0.2500000000000000    0.2500000000000000    0.2500000000000000 K
   0.7500000000000000    0.7500000000000000    0.7500000000000000 K
   0.5000000000000000    0.5000000000000000    0.5000000000000000 K
   0.0000000000000000    0.0000000000000000    0.0000000000000000 Re
