K3 Re1
1.0
      4.8683061167       0.0000000000       2.8107178470
      1.6227687056       4.5898830241       2.8107178470
      0.0000000000       0.0000000000       5.6214356940
K Re
3 1
direct
   0.2500000000000000    0.2500000000000000    0.2500000000000000 K
   0.7500000000000000    0.7500000000000000    0.7500000000000000 K
   0.5000000000000000    0.5000000000000000    0.5000000000000000 K
   0.0000000000000000    0.0000000000000000    0.0000000000000000 Re
