K3 Re1
1.0
      4.3273832149       0.0000000000       2.4984158640
      1.4424610716       4.0798960214       2.4984158640
      0.0000000000       0.0000000000       4.9968317280
K Re
3 1
direct
   0.2500000000000000    0.2500000000000000    0.2500000000000000 K
   0.7500000000000000    0.7500000000000000    0.7500000000000000 K
   0.5000000000000000    0.5000000000000000    0.5000000000000000 K
   0.0000000000000000    0.0000000000000000    0.0000000000000000 Re
