K3 Re1
1.0
      4.5978446658       0.0000000000       2.6545668555
      1.5326148886       4.3348895227       2.6545668555
      0.0000000000       0.0000000000       5.3091337110
K Re
3 1
direct
   0.2500000000000000    0.2500000000000000    0.2500000000000000 K
   0.7500000000000000    0.7500000000000000    0.7500000000000000 K
   0.5000000000000000    0.5000000000000000    0.5000000000000000 K
   0.0000000000000000    0.0000000000000000    0.0000000000000000 Re
