Li3 Ce1
1.0
      3.4184656314       0.0000000000       1.9736520525
      1.1394885438       3.2229603056       1.9736520525
      0.0000000000       0.0000000000       3.9473041050
Li Ce
3 1
direct
   0.2500000000000000    0.2500000000000000    0.2500000000000000 Li
   0.7500000000000000    0.7500000000000000    0.7500000000000000 Li
   0.5000000000000000    0.5000000000000000    0.5000000000000000 Li
   0.0000000000000000    0.0000000000000000    0.0000000000000000 Ce
