Li3 Ce1
1.0
      3.6463633402       0.0000000000       2.1052288560
      1.2154544467       3.4378243260       2.1052288560
      0.0000000000       0.0000000000       4.2104577120
Li Ce
3 1
direct
   0.2500000000000000    0.2500000000000000    0.2500000000000000 Li
   0.7500000000000000    0.7500000000000000    0.7500000000000000 Li
   0.5000000000000000    0.5000000000000000    0.5000000000000000 Li
   0.0000000000000000    0.0000000000000000    0.0000000000000000 Ce
