K1 N2
1.0
      3.4964549501       0.0000000000       1.8498097340
      1.5035277871       3.7016037079       1.3874299026
      0.0000000000       0.0000000000       4.2293530890
K N
1 2
direct
   0.0000000000000000    0.0000000000000000    0.0000000000000000 K
   0.5000000000000000    0.3849430000000000    0.6150570000000000 N
   0.5000000000000000    0.6150570000000000    0.3849430000000000 N
