K1 N2
1.0
      2.7603591711       0.0000000000       1.4603761058
      1.1869956214       2.9223187168       1.0953393968
      0.0000000000       0.0000000000       3.3389629650
K N
1 2
direct
   0.0000000000000000    0.0000000000000000    0.0000000000000000 K
   0.5000000000000000    0.3849430000000000    0.6150570000000000 N
   0.5000000000000000    0.6150570000000000    0.3849430000000000 N
