K1 N2
1.0
      3.3124310053       0.0000000000       1.7524513270
      1.4243947456       3.5067824601       1.3144072761
      0.0000000000       0.0000000000       4.0067555580
K N
1 2
direct
   0.0000000000000000    0.0000000000000000    0.0000000000000000 K
   0.5000000000000000    0.3849430000000000    0.6150570000000000 N
   0.5000000000000000    0.6150570000000000    0.3849430000000000 N
