K1 N2
1.0
      2.9443831158       0.0000000000       1.5577345129
      1.2661286628       3.1171399646       1.1683620232
      0.0000000000       0.0000000000       3.5615604960
K N
1 2
direct
   0.0000000000000000    0.0000000000000000    0.0000000000000000 K
   0.5000000000000000    0.3849430000000000    0.6150570000000000 N
   0.5000000000000000    0.6150570000000000    0.3849430000000000 N
