K1 N2
1.0
      3.1284070606       0.0000000000       1.6550929199
      1.3452617042       3.3119612123       1.2413846497
      0.0000000000       0.0000000000       3.7841580270
K N
1 2
direct
   0.0000000000000000    0.0000000000000000    0.0000000000000000 K
   0.5000000000000000    0.3849430000000000    0.6150570000000000 N
   0.5000000000000000    0.6150570000000000    0.3849430000000000 N
