K6 Co2
1.0
      8.8282089000       0.0000000000       0.0000000000
     -0.0000000000       5.9952637831       1.7514074799
      0.0000000000       0.0000000000       7.3870958070
K Co
6 2
direct
   0.0000000000000000    0.0000000000000000    0.5000000000000000 K
   0.5000000000000000    0.0000000000000000    0.0000000000000000 K
   0.2475250000000000    0.4984710000000000    0.1254620000000000 K
   0.7475250000000000    0.5015290000000000    0.3745380000000000 K
   0.7524750000000000    0.5015290000000000    0.8745380000000000 K
   0.2524750000000000    0.4984710000000000    0.6254620000000000 K
   0.0000000000000000    0.0000000000000000    0.0000000000000000 Co
   0.5000000000000000    0.0000000000000000    0.5000000000000000 Co
