K3 Cu1
1.0
      5.5225637500       0.0000000000       0.0000000000
     -0.0000000000       5.5225637500       0.0000000000
      0.0000000000       0.0000000000       5.5225637500
K Cu
3 1
direct
   0.5000000000000000    0.0000000000000000    0.5000000000000000 K
   0.5000000000000000    0.5000000000000000    0.0000000000000000 K
   0.0000000000000000    0.5000000000000000    0.5000000000000000 K
   0.0000000000000000    0.0000000000000000    0.0000000000000000 Cu
