Li2 Cl2
1.0
      3.5323941780       0.0000000000       0.0000000000
     -1.7661974638       3.0591428779       0.0000000000
      0.0000000000       0.0000000000       5.7214449000
Li Cl
2 2
direct
   0.0000000000000000    0.0000000000000000    0.3760170000000000 Li
   0.3333333333333333    0.6666666666666666    0.8760170000000000 Li
   0.0000000000000000    0.0000000000000000    0.9989840000000000 Cl
   0.3333333333333333    0.6666666666666666    0.4989830000000000 Cl
