Cu1 I4
1.0
      4.2487885065       0.0000000000      -5.8874538567
     -0.4436918688       4.2255581049      -5.8874538567
      0.0000000000       0.0000000000       7.2604625670
Cu I
1 4
direct
   0.0000000000000000    0.0000000000000000    0.0000000000000000 Cu
   0.3784325100000000    0.3784325100000000    0.5112957800000000 I
   0.8671367300000000    0.8671367300000000    0.4887042200000000 I
   0.1328632700000000    0.6215674900000000    0.0000000000000000 I
   0.6215674900000000    0.1328632700000000    0.0000000000000000 I
