Cu1 I4
1.0
      3.5406570887       0.0000000000      -4.9062115472
     -0.3697432240       3.5212984208      -4.9062115472
      0.0000000000       0.0000000000       6.0503854725
Cu I
1 4
direct
   0.0000000000000000    0.0000000000000000    0.0000000000000000 Cu
   0.3784325100000000    0.3784325100000000    0.5112957800000000 I
   0.8671367300000000    0.8671367300000000    0.4887042200000000 I
   0.1328632700000000    0.6215674900000000    0.0000000000000000 I
   0.6215674900000000    0.1328632700000000    0.0000000000000000 I
