Cu1 I4
1.0
      4.0127447005       0.0000000000      -5.5603730868
     -0.4190423206       3.9908048769      -5.5603730868
      0.0000000000       0.0000000000       6.8571035355
Cu I
1 4
direct
   0.0000000000000000    0.0000000000000000    0.0000000000000000 Cu
   0.3784325100000000    0.3784325100000000    0.5112957800000000 I
   0.8671367300000000    0.8671367300000000    0.4887042200000000 I
   0.1328632700000000    0.6215674900000000    0.0000000000000000 I
   0.6215674900000000    0.1328632700000000    0.0000000000000000 I
