Li6 Gd2
1.0
      4.8143181450       0.0000000000       0.0000000000
     -2.4071597158       4.1693214441       0.0000000000
      0.0000000000       0.0000000000       3.7800240000
Li Gd
6 2
direct
   0.1496260000000000    0.2992530000000000    0.2500000000000000 Li
   0.7007470000000000    0.8503740000000000    0.2500000000000000 Li
   0.1496260000000000    0.8503740000000000    0.2500000000000000 Li
   0.8503740000000000    0.7007470000000000    0.7500000000000000 Li
   0.2992530000000000    0.1496260000000000    0.7500000000000000 Li
   0.8503740000000000    0.1496260000000000    0.7500000000000000 Li
   0.3333333333333333    0.6666666666666666    0.7500000000000000 Gd
   0.6666666666666666    0.3333333333333333    0.2500000000000000 Gd
