Li3 Ni1
1.0
      2.9539191927       0.0000000000      -2.6238680841
     -0.5962426799       2.8931182596      -2.6238680841
      0.0000000000       0.0000000000       3.9509900430
Li Ni
3 1
direct
   0.7500000000000000    0.2500000000000000    0.5000000000000000 Li
   0.2500000000000000    0.7500000000000000    0.5000000000000000 Li
   0.5000000000000000    0.5000000000000000    0.0000000000000000 Li
   0.0000000000000000    0.0000000000000000    0.0000000000000000 Ni
