Li3 Ni1
1.0
      3.1276791452       0.0000000000      -2.7782132655
     -0.6313157787       3.0633016866      -2.7782132655
      0.0000000000       0.0000000000       4.1834012220
Li Ni
3 1
direct
   0.7500000000000000    0.2500000000000000    0.5000000000000000 Li
   0.2500000000000000    0.7500000000000000    0.5000000000000000 Li
   0.5000000000000000    0.5000000000000000    0.0000000000000000 Li
   0.0000000000000000    0.0000000000000000    0.0000000000000000 Ni
