Li3 Ni1
1.0
      2.6063992877       0.0000000000      -2.3151777213
     -0.5260964823       2.5527514055      -2.3151777213
      0.0000000000       0.0000000000       3.4861676850
Li Ni
3 1
direct
   0.7500000000000000    0.2500000000000000    0.5000000000000000 Li
   0.2500000000000000    0.7500000000000000    0.5000000000000000 Li
   0.5000000000000000    0.5000000000000000    0.0000000000000000 Li
   0.0000000000000000    0.0000000000000000    0.0000000000000000 Ni
