Li2 Au6
1.0
      5.3255400105       0.0000000000       0.0000000000
     -2.6627704866       4.6120526600       0.0000000000
      0.0000000000       0.0000000000       4.5717075435
Li Au
2 6
direct
   0.6666666666666666    0.3333333333333333    0.2500000000000000 Li
   0.3333333333333333    0.6666666666666666    0.7500000000000000 Li
   0.8314617200000000    0.1685382800000000    0.7500000000000000 Au
   0.6629214400000000    0.8314617200000000    0.2500000000000000 Au
   0.1685382800000000    0.3370785600000000    0.2500000000000000 Au
   0.1685382800000000    0.8314617200000000    0.2500000000000000 Au
   0.8314617200000000    0.6629214400000000    0.7500000000000000 Au
   0.3370785600000000    0.1685382800000000    0.7500000000000000 Au
