K3 Si1
1.0
      4.7086169005       0.0000000000       2.7185212350
      1.5695389668       4.4393265871       2.7185212350
      0.0000000000       0.0000000000       5.4370424700
K Si
3 1
direct
   0.2500000000000000    0.2500000000000000    0.2500000000000000 K
   0.7500000000000000    0.7500000000000000    0.7500000000000000 K
   0.5000000000000000    0.5000000000000000    0.5000000000000000 K
   0.0000000000000000    0.0000000000000000    0.0000000000000000 Si
