K3 Si1
1.0
      4.1854372449       0.0000000000       2.4164633200
      1.3951457483       3.9460680774       2.4164633200
      0.0000000000       0.0000000000       4.8329266400
K Si
3 1
direct
   0.2500000000000000    0.2500000000000000    0.2500000000000000 K
   0.7500000000000000    0.7500000000000000    0.7500000000000000 K
   0.5000000000000000    0.5000000000000000    0.5000000000000000 K
   0.0000000000000000    0.0000000000000000    0.0000000000000000 Si
