K3 Si1
1.0
      4.4470270727       0.0000000000       2.5674922775
      1.4823423576       4.1926973323       2.5674922775
      0.0000000000       0.0000000000       5.1349845550
K Si
3 1
direct
   0.2500000000000000    0.2500000000000000    0.2500000000000000 K
   0.7500000000000000    0.7500000000000000    0.7500000000000000 K
   0.5000000000000000    0.5000000000000000    0.5000000000000000 K
   0.0000000000000000    0.0000000000000000    0.0000000000000000 Si
