K3 Si1
1.0
      3.9238474171       0.0000000000       2.2654343625
      1.3079491390       3.6994388226       2.2654343625
      0.0000000000       0.0000000000       4.5308687250
K Si
3 1
direct
   0.2500000000000000    0.2500000000000000    0.2500000000000000 K
   0.7500000000000000    0.7500000000000000    0.7500000000000000 K
   0.5000000000000000    0.5000000000000000    0.5000000000000000 K
   0.0000000000000000    0.0000000000000000    0.0000000000000000 Si
