K3 Si1
1.0
      4.9702067283       0.0000000000       2.8695501925
      1.6567355761       4.6859558420       2.8695501925
      0.0000000000       0.0000000000       5.7391003850
K Si
3 1
direct
   0.2500000000000000    0.2500000000000000    0.2500000000000000 K
   0.7500000000000000    0.7500000000000000    0.7500000000000000 K
   0.5000000000000000    0.5000000000000000    0.5000000000000000 K
   0.0000000000000000    0.0000000000000000    0.0000000000000000 Si
