K2 Se6
1.0
      5.1414812688       0.0000000000       0.1498937712
      3.2683436372       3.9689746165       0.1498937712
      0.0000000000       0.0000000000       6.7736672480
K Se
2 6
direct
   0.9694806300000000    0.8314627500000000    0.7180529200000000 K
   0.1685372500000000    0.0305193700000000    0.2819470800000000 K
   0.9758291200000000    0.6445446000000000    0.3518597100000000 Se
   0.3554554000000000    0.0241708800000000    0.6481402900000000 Se
   0.7243214500000000    0.8775801200000000    0.1254621900000000 Se
   0.1224198800000000    0.2756785500000000    0.8745378100000000 Se
   0.6646312900000000    0.4426750200000000    0.8779060700000000 Se
   0.5573249800000000    0.3353687100000000    0.1220939300000000 Se
