Mn1 O1
1.0
      2.9507971480       0.0000000000       0.0019050619
     -1.4795471047       2.5530656423      -0.0019050619
      0.0000000000       0.0000000000       4.0864246315
Mn O
1 1
direct
   0.6665130000000000    0.3334870000000000    0.0573450000000000 Mn
   0.3335770000000000    0.6664230000000000    0.0562250000000000 O
