Mn1 O1
1.0
      2.6036445424       0.0000000000       0.0016809370
     -1.3054827394       2.2527049785      -0.0016809370
      0.0000000000       0.0000000000       3.6056687925
Mn O
1 1
direct
   0.6665130000000000    0.3334870000000000    0.0573450000000000 Mn
   0.3335770000000000    0.6664230000000000    0.0562250000000000 O
