Mn1 O1
1.0
      2.7772208452       0.0000000000       0.0017929995
     -1.3925149221       2.4028853104      -0.0017929995
      0.0000000000       0.0000000000       3.8460467120
Mn O
1 1
direct
   0.6665130000000000    0.3334870000000000    0.0573450000000000 Mn
   0.3335770000000000    0.6664230000000000    0.0562250000000000 O
