Mn1 O1
1.0
      3.1243734509       0.0000000000       0.0020171244
     -1.5665792873       2.7032459742      -0.0020171244
      0.0000000000       0.0000000000       4.3268025510
Mn O
1 1
direct
   0.6665130000000000    0.3334870000000000    0.0573450000000000 Mn
   0.3335770000000000    0.6664230000000000    0.0562250000000000 O
