K1 Eu3
1.0
      4.5505677336       0.0000000000      -4.2471184393
     -0.8593312244       4.4686929348      -4.2471184393
      0.0000000000       0.0000000000       6.2246029380
K Eu
1 3
direct
   0.0000000000000000    0.0000000000000000    0.0000000000000000 K
   0.7500000000000000    0.2500000000000000    0.5000000000000000 Eu
   0.2500000000000000    0.7500000000000000    0.5000000000000000 Eu
   0.5000000000000000    0.5000000000000000    0.0000000000000000 Eu
