K1 Eu3
1.0
      4.0152068238       0.0000000000      -3.7474574464
     -0.7582334333       3.9429643542      -3.7474574464
      0.0000000000       0.0000000000       5.4922967100
K Eu
1 3
direct
   0.0000000000000000    0.0000000000000000    0.0000000000000000 K
   0.7500000000000000    0.2500000000000000    0.5000000000000000 Eu
   0.2500000000000000    0.7500000000000000    0.5000000000000000 Eu
   0.5000000000000000    0.5000000000000000    0.0000000000000000 Eu
