K1 Eu3
1.0
      4.8182481885       0.0000000000      -4.4969489357
     -0.9098801199       4.7315572250      -4.4969489357
      0.0000000000       0.0000000000       6.5907560520
K Eu
1 3
direct
   0.0000000000000000    0.0000000000000000    0.0000000000000000 K
   0.7500000000000000    0.2500000000000000    0.5000000000000000 Eu
   0.2500000000000000    0.7500000000000000    0.5000000000000000 Eu
   0.5000000000000000    0.5000000000000000    0.0000000000000000 Eu
