K1 Eu3
1.0
      4.2828872787       0.0000000000      -3.9972879429
     -0.8087823288       4.2058286445      -3.9972879429
      0.0000000000       0.0000000000       5.8584498240
K Eu
1 3
direct
   0.0000000000000000    0.0000000000000000    0.0000000000000000 K
   0.7500000000000000    0.2500000000000000    0.5000000000000000 Eu
   0.2500000000000000    0.7500000000000000    0.5000000000000000 Eu
   0.5000000000000000    0.5000000000000000    0.0000000000000000 Eu
