K1 Eu3
1.0
      5.0859286435       0.0000000000      -4.7467794322
     -0.9604290155       4.9944215153      -4.7467794322
      0.0000000000       0.0000000000       6.9569091660
K Eu
1 3
direct
   0.0000000000000000    0.0000000000000000    0.0000000000000000 K
   0.7500000000000000    0.2500000000000000    0.5000000000000000 Eu
   0.2500000000000000    0.7500000000000000    0.5000000000000000 Eu
   0.5000000000000000    0.5000000000000000    0.0000000000000000 Eu
