Mn1 Pd3
1.0
      2.6692824102       0.0000000000       8.0484910888
      1.2998304412       2.3314178968       8.0484910888
      0.0000000000       0.0000000000       8.4795807180
Mn Pd
1 3
direct
   0.0000000000000000    0.0000000000000000    0.0000000000000000 Mn
   0.2551770000000000    0.2551770000000000    0.2551770000000000 Pd
   0.5000000000000000    0.5000000000000000    0.5000000000000000 Pd
   0.7448230000000000    0.7448230000000000    0.7448230000000000 Pd
