Mn1 Pd3
1.0
      2.3883053144       0.0000000000       7.2012815005
      1.1630061843       2.0860054866       7.2012815005
      0.0000000000       0.0000000000       7.5869932740
Mn Pd
1 3
direct
   0.0000000000000000    0.0000000000000000    0.0000000000000000 Mn
   0.2551770000000000    0.2551770000000000    0.2551770000000000 Pd
   0.5000000000000000    0.5000000000000000    0.5000000000000000 Pd
   0.7448230000000000    0.7448230000000000    0.7448230000000000 Pd
