Mn1 Pd3
1.0
      2.2478167665       0.0000000000       6.7776767064
      1.0945940558       1.9632992815       6.7776767064
      0.0000000000       0.0000000000       7.1406995520
Mn Pd
1 3
direct
   0.0000000000000000    0.0000000000000000    0.0000000000000000 Mn
   0.2551770000000000    0.2551770000000000    0.2551770000000000 Pd
   0.5000000000000000    0.5000000000000000    0.5000000000000000 Pd
   0.7448230000000000    0.7448230000000000    0.7448230000000000 Pd
