Mn1 Pd3
1.0
      2.1073282186       0.0000000000       6.3540719122
      1.0261819273       1.8405930764       6.3540719122
      0.0000000000       0.0000000000       6.6944058300
Mn Pd
1 3
direct
   0.0000000000000000    0.0000000000000000    0.0000000000000000 Mn
   0.2551770000000000    0.2551770000000000    0.2551770000000000 Pd
   0.5000000000000000    0.5000000000000000    0.5000000000000000 Pd
   0.7448230000000000    0.7448230000000000    0.7448230000000000 Pd
