Mn1 Pd3
1.0
      2.5287938623       0.0000000000       7.6248862947
      1.2314183127       2.2087116917       7.6248862947
      0.0000000000       0.0000000000       8.0332869960
Mn Pd
1 3
direct
   0.0000000000000000    0.0000000000000000    0.0000000000000000 Mn
   0.2551770000000000    0.2551770000000000    0.2551770000000000 Pd
   0.5000000000000000    0.5000000000000000    0.5000000000000000 Pd
   0.7448230000000000    0.7448230000000000    0.7448230000000000 Pd
