Li1 Au1
1.0
      2.2387655924       0.0000000000       2.9140619399
      0.9901471906       2.0079043599       2.9140619399
      0.0000000000       0.0000000000       3.6747553840
Li Au
1 1
direct
   0.5000000000000000    0.5000000000000000    0.5000000000000000 Li
   0.0000000000000000    0.0000000000000000    0.0000000000000000 Au
