Li1 Au1
1.0
      2.0988427428       0.0000000000       2.7319330686
      0.9282629911       1.8824103374       2.7319330686
      0.0000000000       0.0000000000       3.4450831725
Li Au
1 1
direct
   0.5000000000000000    0.5000000000000000    0.5000000000000000 Li
   0.0000000000000000    0.0000000000000000    0.0000000000000000 Au
