K1 N1
1.0
      3.0244750677       0.0000000000       1.7461814945
      1.0081583559       2.8515024399       1.7461814945
      0.0000000000       0.0000000000       3.4923629890
K N
1 1
direct
   0.0000000000000000    0.0000000000000000    0.0000000000000000 K
   0.5000000000000000    0.5000000000000000    0.5000000000000000 N
