K1 N1
1.0
      2.6686544715       0.0000000000       1.5407483775
      0.8895514905       2.5160315646       1.5407483775
      0.0000000000       0.0000000000       3.0814967550
K N
1 1
direct
   0.0000000000000000    0.0000000000000000    0.0000000000000000 K
   0.5000000000000000    0.5000000000000000    0.5000000000000000 N
