K1 N1
1.0
      2.8465647696       0.0000000000       1.6434649360
      0.9488549232       2.6837670022       1.6434649360
      0.0000000000       0.0000000000       3.2869298720
K N
1 1
direct
   0.0000000000000000    0.0000000000000000    0.0000000000000000 K
   0.5000000000000000    0.5000000000000000    0.5000000000000000 N
