K1 N1
1.0
      3.3802956639       0.0000000000       1.9516146115
      1.1267652213       3.1869733152       1.9516146115
      0.0000000000       0.0000000000       3.9032292230
K N
1 1
direct
   0.0000000000000000    0.0000000000000000    0.0000000000000000 K
   0.5000000000000000    0.5000000000000000    0.5000000000000000 N
