K1 N1
1.0
      3.2023853658       0.0000000000       1.8488980530
      1.0674617886       3.0192378775       1.8488980530
      0.0000000000       0.0000000000       3.6977961060
K N
1 1
direct
   0.0000000000000000    0.0000000000000000    0.0000000000000000 K
   0.5000000000000000    0.5000000000000000    0.5000000000000000 N
