Cs4 K8
1.0
      8.2011648510       0.0000000000       0.0000000000
     -4.1005720586       7.1024115099       0.0000000000
      0.0000000000       0.0000000000      13.9085715690
Cs K
4 8
direct
   0.3333333333333333    0.6666666666666666    0.4386409400000000 Cs
   0.6666666666666666    0.3333333333333333    0.9386409400000000 Cs
   0.6666666666666666    0.3333333333333333    0.5613590600000000 Cs
   0.3333333333333333    0.6666666666666666    0.0613590600000000 Cs
   0.1681958200000000    0.3363926400000000    0.7500000000000000 K
   0.8318041800000000    0.1681968200000000    0.2500000000000000 K
   0.3363926400000000    0.1681958200000000    0.2500000000000000 K
   0.6636073600000000    0.8318041800000000    0.7500000000000000 K
   0.0000000000000000    0.0000000000000000    0.0000000000000000 K
   0.0000000000000000    0.0000000000000000    0.5000000000000000 K
   0.8318041800000000    0.6636073600000000    0.2500000000000000 K
   0.1681958200000000    0.8318031800000000    0.7500000000000000 K
