La2 Zn17
1.0
      5.7483092928       0.0000000000       0.7057359887
      0.6243903846       5.7142974633       0.7057354926
      0.0000000000       0.0000000000       5.7914698830
La Zn
2 17
direct
   0.6626357400000000    0.6626357400000000    0.6626357400000000 La
   0.3373642600000000    0.3373642600000000    0.3373642600000000 La
   0.3471340800000000    0.3471340800000000    0.8407965900000000 Zn
   0.3471340800000000    0.8407965900000000    0.3471340800000000 Zn
   0.0982652400000000    0.0982652400000000    0.0982652400000000 Zn
   0.9017347600000000    0.9017347600000000    0.9017347600000000 Zn
   0.0000000000000000    0.0000000000000000    0.5000000000000000 Zn
   0.5000000000000000    0.0000000000000000    0.0000000000000000 Zn
   0.0000000000000000    0.5000000000000000    0.0000000000000000 Zn
   0.7108244200000000    0.2891755800000000    0.0000000000000000 Zn
   0.0000000000000000    0.7108244200000000    0.2891755800000000 Zn
   0.2891755800000000    0.0000000000000000    0.7108244200000000 Zn
   0.2891755800000000    0.7108244200000000    0.0000000000000000 Zn
   0.0000000000000000    0.2891755800000000    0.7108244200000000 Zn
   0.7108244200000000    0.0000000000000000    0.2891755800000000 Zn
   0.6528659200000000    0.1592034100000000    0.6528659200000000 Zn
   0.6528659200000000    0.6528659200000000    0.1592034100000000 Zn
   0.1592034100000000    0.6528659200000000    0.6528659200000000 Zn
   0.8407965900000000    0.3471340800000000    0.3471340800000000 Zn
