Cs1 K1
1.0
      4.0307656240       0.0000000000       0.0000000000
     -1.2828285537       3.8211807622       0.0000000000
      0.0000000000       0.0000000000       6.1698136000
Cs K
1 1
direct
   0.0000000000000000    0.0000000000000000    0.0000000000000000 Cs
   0.5000000000000000    0.5000000000000000    0.5000000000000000 K
