Cs1 K1
1.0
      3.7788427725       0.0000000000       0.0000000000
     -1.2026517691       3.5823569646       0.0000000000
      0.0000000000       0.0000000000       5.7842002500
Cs K
1 1
direct
   0.0000000000000000    0.0000000000000000    0.0000000000000000 Cs
   0.5000000000000000    0.5000000000000000    0.5000000000000000 K
