Cs1 K1
1.0
      4.5346113270       0.0000000000       0.0000000000
     -1.4431821229       4.2988283575       0.0000000000
      0.0000000000       0.0000000000       6.9410403000
Cs K
1 1
direct
   0.0000000000000000    0.0000000000000000    0.0000000000000000 Cs
   0.5000000000000000    0.5000000000000000    0.5000000000000000 K
