Cs1 K1
1.0
      4.7865341785       0.0000000000       0.0000000000
     -1.5233589075       4.5376521551       0.0000000000
      0.0000000000       0.0000000000       7.3266536500
Cs K
1 1
direct
   0.0000000000000000    0.0000000000000000    0.0000000000000000 Cs
   0.5000000000000000    0.5000000000000000    0.5000000000000000 K
