Mn4 Te4
1.0
      3.3779152000       0.0000000000       0.0000000000
     -0.0000000000       5.4363256799       1.7719045359
      0.0000000000       0.0000000000       5.7188245600
Mn Te
4 4
direct
   0.2500000000000000    0.2985060000000000    0.4751980000000000 Mn
   0.2500000000000000    0.1166250000000000    0.8820060000000000 Mn
   0.7500000000000000    0.8833750000000000    0.1179940000000000 Mn
   0.7500000000000000    0.7014940000000000    0.5248020000000000 Mn
   0.7500000000000000    0.4977250000000000    0.2508080000000000 Te
   0.2500000000000000    0.0035450000000000    0.2804860000000000 Te
   0.2500000000000000    0.5022750000000000    0.7491920000000000 Te
   0.7500000000000000    0.9964550000000000    0.7195140000000000 Te
