K1 B1
1.0
      3.0868332572       0.0000000000       1.7821840120
      1.0289444191       2.9102943048       1.7821840120
      0.0000000000       0.0000000000       3.5643680240
K B
1 1
direct
   0.0000000000000000    0.0000000000000000    0.0000000000000000 K
   0.5000000000000000    0.5000000000000000    0.5000000000000000 B
