K1 B1
1.0
      3.2797603358       0.0000000000       1.8935705128
      1.0932534453       3.0921876988       1.8935705128
      0.0000000000       0.0000000000       3.7871410255
K B
1 1
direct
   0.0000000000000000    0.0000000000000000    0.0000000000000000 K
   0.5000000000000000    0.5000000000000000    0.5000000000000000 B
