K1 B1
1.0
      3.4726874144       0.0000000000       2.0049570135
      1.1575624715       3.2740810929       2.0049570135
      0.0000000000       0.0000000000       4.0099140270
K B
1 1
direct
   0.0000000000000000    0.0000000000000000    0.0000000000000000 K
   0.5000000000000000    0.5000000000000000    0.5000000000000000 B
