K1 B1
1.0
      2.8939061786       0.0000000000       1.6707975113
      0.9646353929       2.7284009107       1.6707975113
      0.0000000000       0.0000000000       3.3415950225
K B
1 1
direct
   0.0000000000000000    0.0000000000000000    0.0000000000000000 K
   0.5000000000000000    0.5000000000000000    0.5000000000000000 B
