K1 B1
1.0
      3.6656144929       0.0000000000       2.1163435143
      1.2218714976       3.4559744869       2.1163435143
      0.0000000000       0.0000000000       4.2326870285
K B
1 1
direct
   0.0000000000000000    0.0000000000000000    0.0000000000000000 K
   0.5000000000000000    0.5000000000000000    0.5000000000000000 B
