Li4 Mg2
1.0
      4.2661281319       0.0000000000       3.2030367989
      1.6004847570       3.9545287684       3.2030367989
      0.0000000000       0.0000000000       5.3347247640
Li Mg
4 2
direct
   0.3319863500000000    0.0000000000000000    0.6680136500000000 Li
   0.6680136500000000    0.3319863500000000    0.0000000000000000 Li
   0.0000000000000000    0.6680136500000000    0.3319863500000000 Li
   0.5000000000000000    0.5000000000000000    0.5000000000000000 Li
   0.8328719900000000    0.8328719900000000    0.8328719900000000 Mg
   0.1671280100000000    0.1671280100000000    0.1671280100000000 Mg
