Li4 Mg2
1.0
      3.5551067766       0.0000000000       2.6691973325
      1.3337372975       3.2954406404       2.6691973325
      0.0000000000       0.0000000000       4.4456039700
Li Mg
4 2
direct
   0.3319863500000000    0.0000000000000000    0.6680136500000000 Li
   0.6680136500000000    0.3319863500000000    0.0000000000000000 Li
   0.0000000000000000    0.6680136500000000    0.3319863500000000 Li
   0.5000000000000000    0.5000000000000000    0.5000000000000000 Li
   0.8328719900000000    0.8328719900000000    0.8328719900000000 Mg
   0.1671280100000000    0.1671280100000000    0.1671280100000000 Mg
