Li4 Mg2
1.0
      3.7921138950       0.0000000000       2.8471438213
      1.4226531173       3.5151366831       2.8471438213
      0.0000000000       0.0000000000       4.7419775680
Li Mg
4 2
direct
   0.3319863500000000    0.0000000000000000    0.6680136500000000 Li
   0.6680136500000000    0.3319863500000000    0.0000000000000000 Li
   0.0000000000000000    0.6680136500000000    0.3319863500000000 Li
   0.5000000000000000    0.5000000000000000    0.5000000000000000 Li
   0.8328719900000000    0.8328719900000000    0.8328719900000000 Mg
   0.1671280100000000    0.1671280100000000    0.1671280100000000 Mg
