Li2 I2
1.0
      3.3716715600       0.0000000000       0.0000000000
     -1.6858349624       2.9199523106       0.0000000000
      0.0000000000       0.0000000000       5.5669856800
Li I
2 2
direct
   0.0000000000000000    0.0000000000000000    0.0000000000000000 Li
   0.0000000000000000    0.0000000000000000    0.5000000000000000 Li
   0.3333333333333333    0.6666666666666666    0.2500000000000000 I
   0.6666666666666666    0.3333333333333333    0.7500000000000000 I
