Li2 I2
1.0
      4.0038599775       0.0000000000       0.0000000000
     -2.0019290178       3.4674433688       0.0000000000
      0.0000000000       0.0000000000       6.6107954950
Li I
2 2
direct
   0.0000000000000000    0.0000000000000000    0.0000000000000000 Li
   0.0000000000000000    0.0000000000000000    0.5000000000000000 Li
   0.3333333333333333    0.6666666666666666    0.2500000000000000 I
   0.6666666666666666    0.3333333333333333    0.7500000000000000 I
