Zn22 Ni4
1.0
      6.8433094537       0.0000000000      -2.4194752596
     -3.4216547257       5.9264798335      -2.4194752596
      0.0000000000       0.0000000000       7.2584257805
Zn Ni
22 4
direct
   0.2097150600000000    0.0000000000000000    0.0000000000000000 Zn
   0.0000000000000000    0.2097150600000000    0.0000000000000000 Zn
   0.0000000000000000    0.0000000000000000    0.2097150600000000 Zn
   0.7902849400000000    0.7902849400000000    0.7902849400000000 Zn
   0.0000000000000000    0.6450087400000000    0.6450087400000000 Zn
   0.3549912600000000    0.0000000000000000    0.3549912600000000 Zn
   0.3549912600000000    0.3549912600000000    0.0000000000000000 Zn
   0.0000000000000000    0.3549912600000000    0.3549912600000000 Zn
   0.6450087400000000    0.0000000000000000    0.6450087400000000 Zn
   0.6450087400000000    0.6450087400000000    0.0000000000000000 Zn
   0.3512297200000000    0.7371513900000000    0.0000000000000000 Zn
   0.6140783300000000    0.2628486100000000    0.2628486100000000 Zn
   0.3512297200000000    0.0000000000000000    0.7371513900000000 Zn
   0.7371513900000000    0.3512297200000000    0.0000000000000000 Zn
   0.0000000000000000    0.3512297200000000    0.7371513900000000 Zn
   0.2628486100000000    0.6140783300000000    0.2628486100000000 Zn
   0.2628486100000000    0.2628486100000000    0.6140783300000000 Zn
   0.0000000000000000    0.7371513900000000    0.3512297200000000 Zn
   0.7371513900000000    0.0000000000000000    0.3512297200000000 Zn
   0.6487702800000000    0.6487702800000000    0.3859216700000000 Zn
   0.3859216700000000    0.6487702800000000    0.6487702800000000 Zn
   0.6487702800000000    0.3859216700000000    0.6487702800000000 Zn
   0.6568498000000000    0.0000000000000000    0.0000000000000000 Ni
   0.0000000000000000    0.6568498000000000    0.0000000000000000 Ni
   0.0000000000000000    0.0000000000000000    0.6568498000000000 Ni
   0.3431502000000000    0.3431502000000000    0.3431502000000000 Ni
