Li1 Zn3
1.0
      2.3784332035       0.0000000000       0.0000000000
     -1.1892172057       2.0597832267       0.0000000000
      0.0000000000       0.0000000000       7.5028990000
Li Zn
1 3
direct
   0.0000000000000000    0.0000000000000000    0.0000000000000000 Li
   0.0000000000000000    0.0000000000000000    0.5000000000000000 Zn
   0.6666666666666666    0.3333333333333333    0.2493840000000000 Zn
   0.6666666666666666    0.3333333333333333    0.7506159999999999 Zn
