Li1 Zn3
1.0
      2.0986175325       0.0000000000       0.0000000000
     -1.0493092992       1.8174557883       0.0000000000
      0.0000000000       0.0000000000       6.6202050000
Li Zn
1 3
direct
   0.0000000000000000    0.0000000000000000    0.0000000000000000 Li
   0.0000000000000000    0.0000000000000000    0.5000000000000000 Zn
   0.6666666666666666    0.3333333333333333    0.2493840000000000 Zn
   0.6666666666666666    0.3333333333333333    0.7506159999999999 Zn
