Li2 In2
1.0
      3.9646459234       0.0000000000       2.2889896116
      1.3215486392       3.7379047330       2.2889896128
      0.0000000000       0.0000000000       4.5779801845
Li In
2 2
direct
   0.6250000000000000    0.6250000000000000    0.6250000000000000 Li
   0.3750000000000000    0.3750000000000000    0.3750000000000000 Li
   0.1250000000000000    0.1250000000000000    0.1250000000000000 In
   0.8750000000000000    0.8750000000000000    0.8750000000000000 In
