Li6 Hg2
1.0
      5.2739733420       0.0000000000       0.0000000000
     -2.6369864510       4.5673950201       0.0000000000
      0.0000000000       0.0000000000       4.2264267930
Li Hg
6 2
direct
   0.1737300100000000    0.3474610200000000    0.2500000000000000 Li
   0.6525389800000000    0.8262699900000000    0.2500000000000000 Li
   0.1737300100000000    0.8262699900000000    0.2500000000000000 Li
   0.8262699900000000    0.6525389800000000    0.7500000000000000 Li
   0.3474610200000000    0.1737300100000000    0.7500000000000000 Li
   0.8262699900000000    0.1737300100000000    0.7500000000000000 Li
   0.3333333333333333    0.6666666666666666    0.7500000000000000 Hg
   0.6666666666666666    0.3333333333333333    0.2500000000000000 Hg
