Li6 Hg2
1.0
      4.3949777850       0.0000000000       0.0000000000
     -2.1974887092       3.8061625167       0.0000000000
      0.0000000000       0.0000000000       3.5220223275
Li Hg
6 2
direct
   0.1737300100000000    0.3474610200000000    0.2500000000000000 Li
   0.6525389800000000    0.8262699900000000    0.2500000000000000 Li
   0.1737300100000000    0.8262699900000000    0.2500000000000000 Li
   0.8262699900000000    0.6525389800000000    0.7500000000000000 Li
   0.3474610200000000    0.1737300100000000    0.7500000000000000 Li
   0.8262699900000000    0.1737300100000000    0.7500000000000000 Li
   0.3333333333333333    0.6666666666666666    0.7500000000000000 Hg
   0.6666666666666666    0.3333333333333333    0.2500000000000000 Hg
