K6 Bi2
1.0
      5.8703848655       0.0000000000       0.0000000000
     -2.9351929136       5.0839031990       0.0000000000
      0.0000000000       0.0000000000      10.4257419780
K Bi
6 2
direct
   0.3333333333333333    0.6666666666666666    0.9181258900000000 K
   0.6666666666666666    0.3333333333333333    0.4181258900000000 K
   0.0000000000000000    0.0000000000000000    0.2500000000000000 K
   0.6666666666666666    0.3333333333333333    0.0818741100000000 K
   0.0000000000000000    0.0000000000000000    0.7500000000000000 K
   0.3333333333333333    0.6666666666666666    0.5818741100000000 K
   0.6666666666666666    0.3333333333333333    0.7500000000000000 Bi
   0.3333333333333333    0.6666666666666666    0.2500000000000000 Bi
