K6 Bi2
1.0
      5.5614172410       0.0000000000       0.0000000000
     -2.7807090760       4.8163293464       0.0000000000
      0.0000000000       0.0000000000       9.8770187160
K Bi
6 2
direct
   0.3333333333333333    0.6666666666666666    0.9181258900000000 K
   0.6666666666666666    0.3333333333333333    0.4181258900000000 K
   0.0000000000000000    0.0000000000000000    0.2500000000000000 K
   0.6666666666666666    0.3333333333333333    0.0818741100000000 K
   0.0000000000000000    0.0000000000000000    0.7500000000000000 K
   0.3333333333333333    0.6666666666666666    0.5818741100000000 K
   0.6666666666666666    0.3333333333333333    0.7500000000000000 Bi
   0.3333333333333333    0.6666666666666666    0.2500000000000000 Bi
