K6 Bi2
1.0
      5.2524496165       0.0000000000       0.0000000000
     -2.6262252385       4.5487554938       0.0000000000
      0.0000000000       0.0000000000       9.3282954540
K Bi
6 2
direct
   0.3333333333333333    0.6666666666666666    0.9181258900000000 K
   0.6666666666666666    0.3333333333333333    0.4181258900000000 K
   0.0000000000000000    0.0000000000000000    0.2500000000000000 K
   0.6666666666666666    0.3333333333333333    0.0818741100000000 K
   0.0000000000000000    0.0000000000000000    0.7500000000000000 K
   0.3333333333333333    0.6666666666666666    0.5818741100000000 K
   0.6666666666666666    0.3333333333333333    0.7500000000000000 Bi
   0.3333333333333333    0.6666666666666666    0.2500000000000000 Bi
