Li2 As6
1.0
      3.5795560315       0.0000000000       0.0000000000
     -1.7897783447       3.0999862676       0.0000000000
      0.0000000000       0.0000000000       8.2718353500
Li As
2 6
direct
   0.3333333333333333    0.6666666666666666    0.2500000000000000 Li
   0.6666666666666666    0.3333333333333333    0.7500000000000000 Li
   0.3333333333333333    0.6666666666666666    0.5718190000000000 As
   0.6666666666666666    0.3333333333333333    0.4281810000000000 As
   0.6666666666666666    0.3333333333333333    0.0718190000000000 As
   0.3333333333333333    0.6666666666666666    0.9281810000000000 As
   0.0000000000000000    0.0000000000000000    0.2500000000000000 As
   0.0000000000000000    0.0000000000000000    0.7500000000000000 As
