Li1 Mg2
1.0
      2.5903761975       0.0000000000       0.0000000000
     -1.2951888532       3.8627548989       1.3081429545
      0.0000000000       0.0000000000       2.5986879750
Li Mg
1 2
direct
   0.6948244700000000    0.3896459400000000    0.2134089000000000 Li
   0.0361410600000000    0.0722811200000000    0.8719120400000000 Mg
   0.3537524700000000    0.7075049400000000    0.5550620500000000 Mg
