Li1 C12
1.0
      3.8512219140       0.0000000000       0.0000000000
     -1.9256097875       3.3352566883       0.0000000000
      0.0000000000       0.0000000000       6.3242687340
Li C
1 12
direct
   0.0000000000000000    0.0000000000000000    0.0000000000000000 Li
   0.3331805300000000    0.0000000000000000    0.2644703100000000 C
   0.6668194700000000    0.6668194700000000    0.2644703100000000 C
   0.0000000000000000    0.3331805300000000    0.2644703100000000 C
   0.6668194700000000    0.0000000000000000    0.2644703100000000 C
   0.3331805300000000    0.3331805300000000    0.2644703100000000 C
   0.0000000000000000    0.6668194700000000    0.2644703100000000 C
   0.6668194700000000    0.0000000000000000    0.7355296900000000 C
   0.3331805300000000    0.3331805300000000    0.7355296900000000 C
   0.0000000000000000    0.6668194700000000    0.7355296900000000 C
   0.3331805300000000    0.0000000000000000    0.7355296900000000 C
   0.6668194700000000    0.6668194700000000    0.7355296900000000 C
   0.0000000000000000    0.3331805300000000    0.7355296900000000 C
