Li3 Ag1
1.0
      3.3333360677       0.0000000000       1.9245024760
      1.1111120226       3.1426993833       1.9245024760
      0.0000000000       0.0000000000       3.8490049520
Li Ag
3 1
direct
   0.0000000000000000    0.0000000000000000    0.0000000000000000 Li
   0.4999990000000000    0.4999990000000000    0.4999990000000000 Li
   0.2500000000000000    0.2500000000000000    0.2500000000000000 Li
   0.7500000000000000    0.7500000000000000    0.7500000000000000 Ag
