Li3 Ag1
1.0
      3.5294146599       0.0000000000       2.0377085040
      1.1764715533       3.3275640529       2.0377085040
      0.0000000000       0.0000000000       4.0754170080
Li Ag
3 1
direct
   0.0000000000000000    0.0000000000000000    0.0000000000000000 Li
   0.4999990000000000    0.4999990000000000    0.4999990000000000 Li
   0.2500000000000000    0.2500000000000000    0.2500000000000000 Li
   0.7500000000000000    0.7500000000000000    0.7500000000000000 Ag
