Li1 Yb3
1.0
      4.1620141078       0.0000000000       2.4029399655
      1.3873380359       3.9239845320       2.4029399655
      0.0000000000       0.0000000000       4.8058799310
Li Yb
1 3
direct
   0.0000000000000000    0.0000000000000000    0.0000000000000000 Li
   0.2500000000000000    0.2500000000000000    0.2500000000000000 Yb
   0.7500000000000000    0.7500000000000000    0.7500000000000000 Yb
   0.5000000000000000    0.5000000000000000    0.5000000000000000 Yb
