Li1 Yb3
1.0
      4.3932371138       0.0000000000       2.5364366303
      1.4644123713       4.1419836727       2.5364366303
      0.0000000000       0.0000000000       5.0728732605
Li Yb
1 3
direct
   0.0000000000000000    0.0000000000000000    0.0000000000000000 Li
   0.2500000000000000    0.2500000000000000    0.2500000000000000 Yb
   0.7500000000000000    0.7500000000000000    0.7500000000000000 Yb
   0.5000000000000000    0.5000000000000000    0.5000000000000000 Yb
