Li1 Mg1
1.0
      3.2445597000       0.0000000000       0.0000000000
      0.0000000000       3.2445597000       0.0000000000
      0.0000000000       0.0000000000       3.2445597000
Li Mg
1 1
direct
   0.0000000000000000    0.0000000000000000    0.0000000000000000 Li
   0.5000000000000000    0.5000000000000000    0.5000000000000000 Mg
