Li1 Pt1
1.0
      2.4716489220       0.0000000000       0.0000000000
     -1.2358258544       2.1405100967       0.0000000000
      0.0000000000       0.0000000000       3.7534185180
Li Pt
1 1
direct
   0.3333333333333333    0.6666666666666666    0.5000000000000000 Li
   0.0000000000000000    0.0000000000000000    0.0000000000000000 Pt
