Li1 Pt1
1.0
      2.3343350930       0.0000000000       0.0000000000
     -1.1671688624       2.0215928691       0.0000000000
      0.0000000000       0.0000000000       3.5448952670
Li Pt
1 1
direct
   0.3333333333333333    0.6666666666666666    0.5000000000000000 Li
   0.0000000000000000    0.0000000000000000    0.0000000000000000 Pt
