Li1 Mn1
1.0
      2.4203663610       0.0000000000       0.0067697830
     -1.2076995448       2.0976358148      -0.0067736379
      0.0000000000       0.0000000000       4.4230317075
Li Mn
1 1
direct
   0.6666666666666666    0.3333333333333333    0.7500070000000000 Li
   0.3332720000000000    0.6666666666666666    0.2499900000000000 Mn
