Li1 Mn1
1.0
      1.9108155481       0.0000000000       0.0053445655
     -0.9534470090       1.6560282749      -0.0053476088
      0.0000000000       0.0000000000       3.4918671375
Li Mn
1 1
direct
   0.6666666666666666    0.3333333333333333    0.7500070000000000 Li
   0.3332720000000000    0.6666666666666666    0.2499900000000000 Mn
