Li1 Mn1
1.0
      2.2929786577       0.0000000000       0.0064134786
     -1.1441364108       1.9872339298      -0.0064171306
      0.0000000000       0.0000000000       4.1902405650
Li Mn
1 1
direct
   0.6666666666666666    0.3333333333333333    0.7500070000000000 Li
   0.3332720000000000    0.6666666666666666    0.2499900000000000 Mn
