Mn4 Cu1
1.0
      1.9790424354       0.0000000000       8.1245682949
      0.9752630573       1.7220542762       8.1245682949
      0.0000000000       0.0000000000       8.3621300560
Mn Cu
4 1
direct
   0.5963470000000000    0.5963470000000000    0.5963470000000000 Mn
   0.2009770000000000    0.2009770000000000    0.2009770000000000 Mn
   0.7990230000000000    0.7990230000000000    0.7990230000000000 Mn
   0.4036530000000000    0.4036530000000000    0.4036530000000000 Mn
   0.0000000000000000    0.0000000000000000    0.0000000000000000 Cu
