Mn4 Cu1
1.0
      2.2264227398       0.0000000000       9.1401393318
      1.0971709395       1.9373110607       9.1401393318
      0.0000000000       0.0000000000       9.4073963130
Mn Cu
4 1
direct
   0.5963470000000000    0.5963470000000000    0.5963470000000000 Mn
   0.2009770000000000    0.2009770000000000    0.2009770000000000 Mn
   0.7990230000000000    0.7990230000000000    0.7990230000000000 Mn
   0.4036530000000000    0.4036530000000000    0.4036530000000000 Mn
   0.0000000000000000    0.0000000000000000    0.0000000000000000 Cu
