Mn4 Cu1
1.0
      2.3501128920       0.0000000000       9.6479248502
      1.1581248806       2.0449394530       9.6479248502
      0.0000000000       0.0000000000       9.9300294415
Mn Cu
4 1
direct
   0.5963470000000000    0.5963470000000000    0.5963470000000000 Mn
   0.2009770000000000    0.2009770000000000    0.2009770000000000 Mn
   0.7990230000000000    0.7990230000000000    0.7990230000000000 Mn
   0.4036530000000000    0.4036530000000000    0.4036530000000000 Mn
   0.0000000000000000    0.0000000000000000    0.0000000000000000 Cu
