Mn4 Cu1
1.0
      1.8553522832       0.0000000000       7.6167827765
      0.9143091162       1.6144258839       7.6167827765
      0.0000000000       0.0000000000       7.8394969275
Mn Cu
4 1
direct
   0.5963470000000000    0.5963470000000000    0.5963470000000000 Mn
   0.2009770000000000    0.2009770000000000    0.2009770000000000 Mn
   0.7990230000000000    0.7990230000000000    0.7990230000000000 Mn
   0.4036530000000000    0.4036530000000000    0.4036530000000000 Mn
   0.0000000000000000    0.0000000000000000    0.0000000000000000 Cu
