Mn4 Cu1
1.0
      2.1027325876       0.0000000000       8.6323538133
      1.0362169984       1.8296826685       8.6323538133
      0.0000000000       0.0000000000       8.8847631845
Mn Cu
4 1
direct
   0.5963470000000000    0.5963470000000000    0.5963470000000000 Mn
   0.2009770000000000    0.2009770000000000    0.2009770000000000 Mn
   0.7990230000000000    0.7990230000000000    0.7990230000000000 Mn
   0.4036530000000000    0.4036530000000000    0.4036530000000000 Mn
   0.0000000000000000    0.0000000000000000    0.0000000000000000 Cu
