Tb1 Cu5
1.0
      3.6259094794       0.0000000000       2.0934198140
      1.2086364931       3.4185402412       2.0934198140
      0.0000000000       0.0000000000       4.1868396280
Tb Cu
1 5
direct
   0.0000000000000000    0.0000000000000000    0.0000000000000000 Tb
   0.7500000000000000    0.7500000000000000    0.7500000000000000 Cu
   0.8713166400000000    0.3762267900000000    0.3762267900000000 Cu
   0.3762267900000000    0.8713166400000000    0.3762267900000000 Cu
   0.3762267900000000    0.3762267900000000    0.8713166400000000 Cu
   0.3762267900000000    0.3762267900000000    0.3762267900000000 Cu
