Tb1 Cu5
1.0
      3.4126206865       0.0000000000       1.9702774720
      1.1375402288       3.2174496387       1.9702774720
      0.0000000000       0.0000000000       3.9405549440
Tb Cu
1 5
direct
   0.0000000000000000    0.0000000000000000    0.0000000000000000 Tb
   0.7500000000000000    0.7500000000000000    0.7500000000000000 Cu
   0.8713166400000000    0.3762267900000000    0.3762267900000000 Cu
   0.3762267900000000    0.8713166400000000    0.3762267900000000 Cu
   0.3762267900000000    0.3762267900000000    0.8713166400000000 Cu
   0.3762267900000000    0.3762267900000000    0.3762267900000000 Cu
