Tb1 Cu5
1.0
      3.1993318936       0.0000000000       1.8471351300
      1.0664439645       3.0163590363       1.8471351300
      0.0000000000       0.0000000000       3.6942702600
Tb Cu
1 5
direct
   0.0000000000000000    0.0000000000000000    0.0000000000000000 Tb
   0.7500000000000000    0.7500000000000000    0.7500000000000000 Cu
   0.8713166400000000    0.3762267900000000    0.3762267900000000 Cu
   0.3762267900000000    0.8713166400000000    0.3762267900000000 Cu
   0.3762267900000000    0.3762267900000000    0.8713166400000000 Cu
   0.3762267900000000    0.3762267900000000    0.3762267900000000 Cu
