Tb1 Cu5
1.0
      3.8391982723       0.0000000000       2.2165621560
      1.2797327574       3.6196308436       2.2165621560
      0.0000000000       0.0000000000       4.4331243120
Tb Cu
1 5
direct
   0.0000000000000000    0.0000000000000000    0.0000000000000000 Tb
   0.7500000000000000    0.7500000000000000    0.7500000000000000 Cu
   0.8713166400000000    0.3762267900000000    0.3762267900000000 Cu
   0.3762267900000000    0.8713166400000000    0.3762267900000000 Cu
   0.3762267900000000    0.3762267900000000    0.8713166400000000 Cu
   0.3762267900000000    0.3762267900000000    0.3762267900000000 Cu
