Tb1 Cu5
1.0
      4.0524870652       0.0000000000       2.3397044980
      1.3508290217       3.8207214460       2.3397044980
      0.0000000000       0.0000000000       4.6794089960
Tb Cu
1 5
direct
   0.0000000000000000    0.0000000000000000    0.0000000000000000 Tb
   0.7500000000000000    0.7500000000000000    0.7500000000000000 Cu
   0.8713166400000000    0.3762267900000000    0.3762267900000000 Cu
   0.3762267900000000    0.8713166400000000    0.3762267900000000 Cu
   0.3762267900000000    0.3762267900000000    0.8713166400000000 Cu
   0.3762267900000000    0.3762267900000000    0.3762267900000000 Cu
