Li3 Zn1
1.0
      3.6904846455       0.0000000000       2.1307023035
      1.2301615485       3.4794222916       2.1307023035
      0.0000000000       0.0000000000       4.2614046070
Li Zn
3 1
direct
   0.0000000000000000    0.0000000000000000    0.0000000000000000 Li
   0.4999990000000000    0.4999990000000000    0.4999990000000000 Li
   0.2500010000000000    0.2500010000000000    0.2500010000000000 Li
   0.7500000000000000    0.7500000000000000    0.7500000000000000 Zn
