Li3 Zn1
1.0
      3.4962486115       0.0000000000       2.0185600770
      1.1654162038       3.2962948025       2.0185600770
      0.0000000000       0.0000000000       4.0371201540
Li Zn
3 1
direct
   0.0000000000000000    0.0000000000000000    0.0000000000000000 Li
   0.4999990000000000    0.4999990000000000    0.4999990000000000 Li
   0.2500010000000000    0.2500010000000000    0.2500010000000000 Li
   0.7500000000000000    0.7500000000000000    0.7500000000000000 Zn
