Mn1 Ni3
1.0
      3.0119318200       0.0000000000       0.0000000000
     -0.0000000000       3.0119291935       0.0000000000
      0.0000000000       0.0000000000       3.0119801850
Mn Ni
1 3
direct
   0.0000000000000000    0.0000000000000000    0.0000000000000000 Mn
   0.0000000000000000    0.5000000000000000    0.5000000000000000 Ni
   0.5000000000000000    0.5000000000000000    0.0000000000000000 Ni
   0.5000000000000000    0.0000000000000000    0.5000000000000000 Ni
