Mn1 Ni3
1.0
      2.8347593600       0.0000000000       0.0000000000
     -0.0000000000       2.8347568880       0.0000000000
      0.0000000000       0.0000000000       2.8348048800
Mn Ni
1 3
direct
   0.0000000000000000    0.0000000000000000    0.0000000000000000 Mn
   0.0000000000000000    0.5000000000000000    0.5000000000000000 Ni
   0.5000000000000000    0.5000000000000000    0.0000000000000000 Ni
   0.5000000000000000    0.0000000000000000    0.5000000000000000 Ni
