Mn1 Ni3
1.0
      2.6575869000       0.0000000000       0.0000000000
     -0.0000000000       2.6575845825       0.0000000000
      0.0000000000       0.0000000000       2.6576295750
Mn Ni
1 3
direct
   0.0000000000000000    0.0000000000000000    0.0000000000000000 Mn
   0.0000000000000000    0.5000000000000000    0.5000000000000000 Ni
   0.5000000000000000    0.5000000000000000    0.0000000000000000 Ni
   0.5000000000000000    0.0000000000000000    0.5000000000000000 Ni
