Mn1 Ni3
1.0
      3.3662767400       0.0000000000       0.0000000000
     -0.0000000000       3.3662738045       0.0000000000
      0.0000000000       0.0000000000       3.3663307950
Mn Ni
1 3
direct
   0.0000000000000000    0.0000000000000000    0.0000000000000000 Mn
   0.0000000000000000    0.5000000000000000    0.5000000000000000 Ni
   0.5000000000000000    0.5000000000000000    0.0000000000000000 Ni
   0.5000000000000000    0.0000000000000000    0.5000000000000000 Ni
