K6 Nd2
1.0
      8.2287871970       0.0000000000       0.0000000000
     -4.1143928933       7.1263391621       0.0000000000
      0.0000000000       0.0000000000       6.8154463000
K Nd
6 2
direct
   0.8289900000000000    0.1710100000000000    0.7500000000000000 K
   0.3420190000000000    0.1710100000000000    0.7500000000000000 K
   0.8289900000000000    0.6579810000000000    0.7500000000000000 K
   0.1710100000000000    0.8289900000000000    0.2500000000000000 K
   0.6579810000000000    0.8289900000000000    0.2500000000000000 K
   0.1710100000000000    0.3420190000000000    0.2500000000000000 K
   0.6666666666666666    0.3333333333333333    0.2500000000000000 Nd
   0.3333333333333333    0.6666666666666666    0.7500000000000000 Nd
