K1 S1
1.0
      7.7200403904       0.0000000000       1.8410573787
     -1.0936833529       7.6421777232       1.8410573787
      0.0000000000       0.0000000000       5.7300500485
K S
1 1
direct
   0.0000000000000000    0.0000000000000000    0.0000000000000000 K
   0.0000000000000000    0.0000000000000000    0.5000000000000000 S
