K1 S1
1.0
      6.9074045598       0.0000000000       1.6472618652
     -0.9785587895       6.8377379629       1.6472618652
      0.0000000000       0.0000000000       5.1268868855
K S
1 1
direct
   0.0000000000000000    0.0000000000000000    0.0000000000000000 K
   0.0000000000000000    0.0000000000000000    0.5000000000000000 S
