K1 S1
1.0
      6.5010866445       0.0000000000       1.5503641084
     -0.9209965077       6.4355180827       1.5503641084
      0.0000000000       0.0000000000       4.8253053040
K S
1 1
direct
   0.0000000000000000    0.0000000000000000    0.0000000000000000 K
   0.0000000000000000    0.0000000000000000    0.5000000000000000 S
