K1 S1
1.0
      7.3137224751       0.0000000000       1.7441596220
     -1.0361210712       7.2399578430       1.7441596220
      0.0000000000       0.0000000000       5.4284684670
K S
1 1
direct
   0.0000000000000000    0.0000000000000000    0.0000000000000000 K
   0.0000000000000000    0.0000000000000000    0.5000000000000000 S
