K1 S1
1.0
      6.0947687293       0.0000000000       1.4534663516
     -0.8634342260       6.0332982025       1.4534663516
      0.0000000000       0.0000000000       4.5237237225
K S
1 1
direct
   0.0000000000000000    0.0000000000000000    0.0000000000000000 K
   0.0000000000000000    0.0000000000000000    0.5000000000000000 S
