Li5 Sn2
1.0
      3.3301885727       0.0000000000       4.1462841089
      1.4589396722       2.9936022962       4.1462840901
      0.0000000000       0.0000000000       5.3180668800
Li Sn
5 2
direct
   0.5000000000000000    0.5000000000000000    0.5000000000000000 Li
   0.3547551500000000    0.3547551500000000    0.3547551500000000 Li
   0.6452448500000000    0.6452448500000000    0.6452448500000000 Li
   0.2142424900000000    0.2142424900000000    0.2142424900000000 Li
   0.7857575100000000    0.7857575100000000    0.7857575100000000 Li
   0.0733881700000000    0.0733881700000000    0.0733881700000000 Sn
   0.9266118300000000    0.9266118300000000    0.9266118300000000 Sn
