Th2 Cu1
1.0
      3.9942655275       0.0000000000       0.0000000000
     -1.9971329062       3.4591353340       0.0000000000
      0.0000000000       0.0000000000       2.3113181325
Th Cu
2 1
direct
   0.3333333333333333    0.6666666666666666    0.5000000000000000 Th
   0.6666666666666666    0.3333333333333333    0.5000000000000000 Th
   0.0000000000000000    0.0000000000000000    0.0000000000000000 Cu
