Th2 Cu1
1.0
      4.2605498960       0.0000000000       0.0000000000
     -2.1302751000       3.6897443563       0.0000000000
      0.0000000000       0.0000000000       2.4654060080
Th Cu
2 1
direct
   0.3333333333333333    0.6666666666666666    0.5000000000000000 Th
   0.6666666666666666    0.3333333333333333    0.5000000000000000 Th
   0.0000000000000000    0.0000000000000000    0.0000000000000000 Cu
