Th2 Cu1
1.0
      5.0594030015       0.0000000000       0.0000000000
     -2.5297016812       4.3815714231       0.0000000000
      0.0000000000       0.0000000000       2.9276696345
Th Cu
2 1
direct
   0.3333333333333333    0.6666666666666666    0.5000000000000000 Th
   0.6666666666666666    0.3333333333333333    0.5000000000000000 Th
   0.0000000000000000    0.0000000000000000    0.0000000000000000 Cu
