Th2 Cu1
1.0
      4.7931186330       0.0000000000       0.0000000000
     -2.3965594875       4.1509624008       0.0000000000
      0.0000000000       0.0000000000       2.7735817590
Th Cu
2 1
direct
   0.3333333333333333    0.6666666666666666    0.5000000000000000 Th
   0.6666666666666666    0.3333333333333333    0.5000000000000000 Th
   0.0000000000000000    0.0000000000000000    0.0000000000000000 Cu
