Th2 Cu1
1.0
      4.5268342645       0.0000000000       0.0000000000
     -2.2634172937       3.9203533785       0.0000000000
      0.0000000000       0.0000000000       2.6194938835
Th Cu
2 1
direct
   0.3333333333333333    0.6666666666666666    0.5000000000000000 Th
   0.6666666666666666    0.3333333333333333    0.5000000000000000 Th
   0.0000000000000000    0.0000000000000000    0.0000000000000000 Cu
