K3 Co1
1.0
      4.5192147758       0.0000000000      -3.5619202542
     -1.0634589099       4.3923066078      -3.5619202542
      0.0000000000       0.0000000000       5.7541791845
K Co
3 1
direct
   0.7500000000000000    0.2500000000000000    0.5000000000000000 K
   0.2500000000000000    0.7500000000000000    0.5000000000000000 K
   0.5000000000000000    0.5000000000000000    0.0000000000000000 K
   0.0000000000000000    0.0000000000000000    0.0000000000000000 Co
