K3 Co1
1.0
      4.2533786126       0.0000000000      -3.3523955334
     -1.0009025034       4.1339356309      -3.3523955334
      0.0000000000       0.0000000000       5.4156980560
K Co
3 1
direct
   0.7500000000000000    0.2500000000000000    0.5000000000000000 K
   0.2500000000000000    0.7500000000000000    0.5000000000000000 K
   0.5000000000000000    0.5000000000000000    0.0000000000000000 K
   0.0000000000000000    0.0000000000000000    0.0000000000000000 Co
