K3 Co1
1.0
      5.0508871024       0.0000000000      -3.9809696959
     -1.1885717228       4.9090485617      -3.9809696959
      0.0000000000       0.0000000000       6.4311414415
K Co
3 1
direct
   0.7500000000000000    0.2500000000000000    0.5000000000000000 K
   0.2500000000000000    0.7500000000000000    0.5000000000000000 K
   0.5000000000000000    0.5000000000000000    0.0000000000000000 K
   0.0000000000000000    0.0000000000000000    0.0000000000000000 Co
