K3 Co1
1.0
      4.7850509391       0.0000000000      -3.7714449750
     -1.1260153163       4.6506775848      -3.7714449750
      0.0000000000       0.0000000000       6.0926603130
K Co
3 1
direct
   0.7500000000000000    0.2500000000000000    0.5000000000000000 K
   0.2500000000000000    0.7500000000000000    0.5000000000000000 K
   0.5000000000000000    0.5000000000000000    0.0000000000000000 K
   0.0000000000000000    0.0000000000000000    0.0000000000000000 Co
