K3 Co1
1.0
      3.9875424493       0.0000000000      -3.1428708125
     -0.9383460970       3.8755646540      -3.1428708125
      0.0000000000       0.0000000000       5.0772169275
K Co
3 1
direct
   0.7500000000000000    0.2500000000000000    0.5000000000000000 K
   0.2500000000000000    0.7500000000000000    0.5000000000000000 K
   0.5000000000000000    0.5000000000000000    0.0000000000000000 K
   0.0000000000000000    0.0000000000000000    0.0000000000000000 Co
