Li6 Tm2
1.0
      5.8270991940       0.0000000000       0.0000000000
     -2.9135501880       5.0464155912       0.0000000000
      0.0000000000       0.0000000000       4.5138339000
Li Tm
6 2
direct
   0.1539930000000000    0.3079850000000000    0.2500000000000000 Li
   0.6920150000000000    0.8460070000000000    0.2500000000000000 Li
   0.1539930000000000    0.8460070000000000    0.2500000000000000 Li
   0.8460070000000000    0.6920150000000000    0.7500000000000000 Li
   0.3079850000000000    0.1539930000000000    0.7500000000000000 Li
   0.8460070000000000    0.1539930000000000    0.7500000000000000 Li
   0.3333333333333333    0.6666666666666666    0.7500000000000000 Tm
   0.6666666666666666    0.3333333333333333    0.2500000000000000 Tm
