Li3 La1
1.0
      4.1039444388       0.0000000000       2.3694134265
      1.3679814796       3.8692359231       2.3694134265
      0.0000000000       0.0000000000       4.7388268530
Li La
3 1
direct
   0.2500000000000000    0.2500000000000000    0.2500000000000000 Li
   0.7500000000000000    0.7500000000000000    0.7500000000000000 Li
   0.5000000000000000    0.5000000000000000    0.5000000000000000 Li
   0.0000000000000000    0.0000000000000000    0.0000000000000000 La
