Li3 La1
1.0
      3.6479506123       0.0000000000       2.1061452680
      1.2159835374       3.4393208205       2.1061452680
      0.0000000000       0.0000000000       4.2122905360
Li La
3 1
direct
   0.2500000000000000    0.2500000000000000    0.2500000000000000 Li
   0.7500000000000000    0.7500000000000000    0.7500000000000000 Li
   0.5000000000000000    0.5000000000000000    0.5000000000000000 Li
   0.0000000000000000    0.0000000000000000    0.0000000000000000 La
