Li3 La1
1.0
      3.4199536990       0.0000000000       1.9745111888
      1.1399845663       3.2243632692       1.9745111888
      0.0000000000       0.0000000000       3.9490223775
Li La
3 1
direct
   0.2500000000000000    0.2500000000000000    0.2500000000000000 Li
   0.7500000000000000    0.7500000000000000    0.7500000000000000 Li
   0.5000000000000000    0.5000000000000000    0.5000000000000000 Li
   0.0000000000000000    0.0000000000000000    0.0000000000000000 La
