Li3 La1
1.0
      4.3319413521       0.0000000000       2.5010475058
      1.4439804507       4.0841934744       2.5010475058
      0.0000000000       0.0000000000       5.0020950115
Li La
3 1
direct
   0.2500000000000000    0.2500000000000000    0.2500000000000000 Li
   0.7500000000000000    0.7500000000000000    0.7500000000000000 Li
   0.5000000000000000    0.5000000000000000    0.5000000000000000 Li
   0.0000000000000000    0.0000000000000000    0.0000000000000000 La
