Li1 Ag3
1.0
      3.0338456550       0.0000000000       0.0000000000
     -0.0000000000       3.0338456550       0.0000000000
      0.0000000000       0.0000000000       3.0338456550
Li Ag
1 3
direct
   0.0000000000000000    0.0000000000000000    0.0000000000000000 Li
   0.0000000000000000    0.5000000000000000    0.5000000000000000 Ag
   0.5000000000000000    0.0000000000000000    0.5000000000000000 Ag
   0.5000000000000000    0.5000000000000000    0.0000000000000000 Ag
