Li1 Pa1
1.0
      2.8860624787       0.0000000000      -0.0019111541
     -1.4427410635       2.4995837940       0.0019340735
      0.0000000000       0.0000000000       5.3913302085
Li Pa
1 1
direct
   0.6666666666666666    0.3333333333333333    0.7499850000000000 Li
   0.3333333333333333    0.6666666666666666    0.2500160000000000 Pa
