Li3 Th1
1.0
      3.9402220132       0.0000000000       2.2748882400
      1.3134073377       3.7148769399       2.2748882400
      0.0000000000       0.0000000000       4.5497764800
Li Th
3 1
direct
   0.2500000000000000    0.2500000000000000    0.2500000000000000 Li
   0.7500000000000000    0.7500000000000000    0.7500000000000000 Li
   0.5000000000000000    0.5000000000000000    0.5000000000000000 Li
   0.0000000000000000    0.0000000000000000    0.0000000000000000 Th
