Li3 Th1
1.0
      3.2835183444       0.0000000000       1.8957402000
      1.0945061148       3.0957307833       1.8957402000
      0.0000000000       0.0000000000       3.7914804000
Li Th
3 1
direct
   0.2500000000000000    0.2500000000000000    0.2500000000000000 Li
   0.7500000000000000    0.7500000000000000    0.7500000000000000 Li
   0.5000000000000000    0.5000000000000000    0.5000000000000000 Li
   0.0000000000000000    0.0000000000000000    0.0000000000000000 Th
