Li3 Th1
1.0
      3.7213207903       0.0000000000       2.1485055600
      1.2404402634       3.5084948877       2.1485055600
      0.0000000000       0.0000000000       4.2970111200
Li Th
3 1
direct
   0.2500000000000000    0.2500000000000000    0.2500000000000000 Li
   0.7500000000000000    0.7500000000000000    0.7500000000000000 Li
   0.5000000000000000    0.5000000000000000    0.5000000000000000 Li
   0.0000000000000000    0.0000000000000000    0.0000000000000000 Th
