Li3 Th1
1.0
      3.5024195673       0.0000000000       2.0221228800
      1.1674731891       3.3021128355       2.0221228800
      0.0000000000       0.0000000000       4.0442457600
Li Th
3 1
direct
   0.2500000000000000    0.2500000000000000    0.2500000000000000 Li
   0.7500000000000000    0.7500000000000000    0.7500000000000000 Li
   0.5000000000000000    0.5000000000000000    0.5000000000000000 Li
   0.0000000000000000    0.0000000000000000    0.0000000000000000 Th
