Li1 O1
1.0
      2.5380257000       0.0000000000       0.0000000000
     -0.0000000000       2.5380257000       0.0000000000
      0.0000000000       0.0000000000       2.0252879000
Li O
1 1
direct
   0.0000000000000000    0.0000000000000000    0.0000000000000000 Li
   0.5000000000000000    0.5000000000000000    0.5000000000000000 O
