K3 Th1
1.0
      5.5714516246       0.0000000000       3.2166790953
      1.8571505415       5.2528149664       3.2166790953
      0.0000000000       0.0000000000       6.4333581905
K Th
3 1
direct
   0.2500000000000000    0.2500000000000000    0.2500000000000000 K
   0.7500000000000000    0.7500000000000000    0.7500000000000000 K
   0.5000000000000000    0.5000000000000000    0.5000000000000000 K
   0.0000000000000000    0.0000000000000000    0.0000000000000000 Th
