K3 Th1
1.0
      4.9849830326       0.0000000000       2.8780812958
      1.6616610109       4.6998870752       2.8780812958
      0.0000000000       0.0000000000       5.7561625915
K Th
3 1
direct
   0.2500000000000000    0.2500000000000000    0.2500000000000000 K
   0.7500000000000000    0.7500000000000000    0.7500000000000000 K
   0.5000000000000000    0.5000000000000000    0.5000000000000000 K
   0.0000000000000000    0.0000000000000000    0.0000000000000000 Th
