K3 Th1
1.0
      4.3985144405       0.0000000000       2.5394834963
      1.4661714802       4.1469591840       2.5394834963
      0.0000000000       0.0000000000       5.0789669925
K Th
3 1
direct
   0.2500000000000000    0.2500000000000000    0.2500000000000000 K
   0.7500000000000000    0.7500000000000000    0.7500000000000000 K
   0.5000000000000000    0.5000000000000000    0.5000000000000000 K
   0.0000000000000000    0.0000000000000000    0.0000000000000000 Th
