K3 Th1
1.0
      5.2782173286       0.0000000000       3.0473801955
      1.7594057762       4.9763510208       3.0473801955
      0.0000000000       0.0000000000       6.0947603910
K Th
3 1
direct
   0.2500000000000000    0.2500000000000000    0.2500000000000000 K
   0.7500000000000000    0.7500000000000000    0.7500000000000000 K
   0.5000000000000000    0.5000000000000000    0.5000000000000000 K
   0.0000000000000000    0.0000000000000000    0.0000000000000000 Th
