K3 Th1
1.0
      4.6917487365       0.0000000000       2.7087823960
      1.5639162455       4.4234231296       2.7087823960
      0.0000000000       0.0000000000       5.4175647920
K Th
3 1
direct
   0.2500000000000000    0.2500000000000000    0.2500000000000000 K
   0.7500000000000000    0.7500000000000000    0.7500000000000000 K
   0.5000000000000000    0.5000000000000000    0.5000000000000000 K
   0.0000000000000000    0.0000000000000000    0.0000000000000000 Th
