Sm3 Zn11
1.0
      4.0638719963       0.0000000000       1.1383514357
      1.3033755733       7.0322616856       3.1701109179
      0.0000000000       0.0000000000       7.8231129055
Sm Zn
3 11
direct
   0.0000000000000000    0.0000000000000000    0.0000000000000000 Sm
   0.6999870000000000    0.3000130000000000    0.3000130000000000 Sm
   0.3000130000000000    0.6999870000000000    0.6999870000000000 Sm
   0.0000000000000000    0.5000000000000000    0.5000000000000000 Zn
   0.5000000000000000    0.3076750000000000    0.6923250000000000 Zn
   0.5000000000000000    0.6923250000000000    0.3076750000000000 Zn
   0.6606350000000000    0.9781360000000000    0.7005940000000001 Zn
   0.3393650000000000    0.0218640000000000    0.2994060000000000 Zn
   0.6606350000000000    0.7005940000000001    0.9781360000000000 Zn
   0.3393650000000000    0.2994060000000000    0.0218640000000000 Zn
   0.8616070000000000    0.8599040000000000    0.4168830000000000 Zn
   0.1383930000000000    0.1400960000000000    0.5831170000000000 Zn
   0.8616070000000000    0.4168830000000000    0.8599040000000000 Zn
   0.1383930000000000    0.5831170000000000    0.1400960000000000 Zn
