Li1 Au1
1.0
      2.5186112914       0.0000000000       3.2783196824
      1.1139155894       2.2588924049       3.2783196824
      0.0000000000       0.0000000000       4.1340998070
Li Au
1 1
direct
   0.5000000000000000    0.5000000000000000    0.5000000000000000 Li
   0.0000000000000000    0.0000000000000000    0.0000000000000000 Au
