Li1 Au1
1.0
      2.3786884419       0.0000000000       3.0961908111
      1.0520313900       2.1333983824       3.0961908111
      0.0000000000       0.0000000000       3.9044275955
Li Au
1 1
direct
   0.5000000000000000    0.5000000000000000    0.5000000000000000 Li
   0.0000000000000000    0.0000000000000000    0.0000000000000000 Au
