Li6 Er2
1.0
      5.5059587250       0.0000000000       0.0000000000
     -2.7529797869       4.7682998830       0.0000000000
      0.0000000000       0.0000000000       4.2903580000
Li Er
6 2
direct
   0.1523500000000000    0.3047000000000000    0.2500000000000000 Li
   0.6953000000000000    0.8476500000000000    0.2500000000000000 Li
   0.1523500000000000    0.8476500000000000    0.2500000000000000 Li
   0.8476500000000000    0.6953000000000000    0.7500000000000000 Li
   0.3047000000000000    0.1523500000000000    0.7500000000000000 Li
   0.8476500000000000    0.1523500000000000    0.7500000000000000 Li
   0.3333333333333333    0.6666666666666666    0.7500000000000000 Er
   0.6666666666666666    0.3333333333333333    0.2500000000000000 Er
