Li4 N4
1.0
      3.8376335723       0.0000000000      -3.4996956366
     -0.7478321118       3.7640641025      -3.4996956366
      0.0000000000       0.0000000000       5.1937752150
Li N
4 4
direct
   0.7401460000000000    0.7401460000000000    0.0000000000000000 Li
   0.2598540000000000    0.2598540000000000    0.0000000000000000 Li
   0.0000000000000000    0.5000000000000000    0.5000000000000000 Li
   0.5000000000000000    0.0000000000000000    0.5000000000000000 Li
   0.1148460000000000    0.6344390000000000    0.0000000000000000 N
   0.6344390000000000    0.1148460000000000    0.0000000000000000 N
   0.8851540000000000    0.8851540000000000    0.5195920000000001 N
   0.3655610000000000    0.3655610000000000    0.4804080000000000 N
