Li4 N4
1.0
      3.1980279769       0.0000000000      -2.9164130305
     -0.6231934265       3.1367200854      -2.9164130305
      0.0000000000       0.0000000000       4.3281460125
Li N
4 4
direct
   0.7401460000000000    0.7401460000000000    0.0000000000000000 Li
   0.2598540000000000    0.2598540000000000    0.0000000000000000 Li
   0.0000000000000000    0.5000000000000000    0.5000000000000000 Li
   0.5000000000000000    0.0000000000000000    0.5000000000000000 Li
   0.1148460000000000    0.6344390000000000    0.0000000000000000 N
   0.6344390000000000    0.1148460000000000    0.0000000000000000 N
   0.8851540000000000    0.8851540000000000    0.5195920000000001 N
   0.3655610000000000    0.3655610000000000    0.4804080000000000 N
