Mg4 Te8
1.0
      5.6699583680       0.0000000000       0.0000000000
     -0.0000000000       5.6699583680       0.0000000000
      0.0000000000       0.0000000000       5.6699583680
Mg Te
4 8
direct
   0.0000000000000000    0.0000000000000000    0.0000000000000000 Mg
   0.5000000000000000    0.0000000000000000    0.5000000000000000 Mg
   0.5000000000000000    0.5000000000000000    0.0000000000000000 Mg
   0.0000000000000000    0.5000000000000000    0.5000000000000000 Mg
   0.3872248600000000    0.3872248600000000    0.3872248600000000 Te
   0.1127751400000000    0.6127751400000000    0.8872248600000000 Te
   0.8872248600000000    0.1127751400000000    0.6127751400000000 Te
   0.6127751400000000    0.8872248600000000    0.1127751400000000 Te
   0.6127751400000000    0.6127751400000000    0.6127751400000000 Te
   0.8872248600000000    0.3872248600000000    0.1127751400000000 Te
   0.1127751400000000    0.8872248600000000    0.3872248600000000 Te
   0.3872248600000000    0.1127751400000000    0.8872248600000000 Te
