Zn2 Pd2
1.0
      3.0142119690       0.0000000000       0.0000000000
     -0.0000000000       3.6797324940       0.0000000000
      0.0000000000       0.0000000000       3.6797324940
Zn Pd
2 2
direct
   0.5000000000000000    0.5000000000000000    0.0000000000000000 Zn
   0.5000000000000000    0.0000000000000000    0.5000000000000000 Zn
   0.0000000000000000    0.5000000000000000    0.5000000000000000 Pd
   0.0000000000000000    0.0000000000000000    0.0000000000000000 Pd
