Li1 Mg1
1.0
      2.5172083233       0.0000000000       3.8233816708
      1.1456072480       2.2414106666       3.8233816708
      0.0000000000       0.0000000000       4.5776176675
Li Mg
1 1
direct
   0.0000000000000000    0.0000000000000000    0.0000000000000000 Li
   0.5000000000000000    0.5000000000000000    0.5000000000000000 Mg
