Li1 Mg1
1.0
      2.8133504790       0.0000000000       4.2731912792
      1.2803845713       2.5051060392       4.2731912792
      0.0000000000       0.0000000000       5.1161609225
Li Mg
1 1
direct
   0.0000000000000000    0.0000000000000000    0.0000000000000000 Li
   0.5000000000000000    0.5000000000000000    0.5000000000000000 Mg
