Li2 Al2
1.0
      3.4858581628       0.0000000000      -2.0101269516
     -1.1591437698       3.2874901957      -2.0101277391
      0.0000000000       0.0000000000       4.0275616590
Li Al
2 2
direct
   0.3750000000000000    0.6250000000000000    0.7500000000000000 Li
   0.6250000000000000    0.3750000000000000    0.2500000000000000 Li
   0.8750000000000000    0.1250000000000000    0.7500000000000000 Al
   0.1250000000000000    0.8750000000000000    0.2500000000000000 Al
