Li1 Pa1
1.0
      2.2784703779       0.0000000000      -0.0015088059
     -1.1390061027       1.9733556269       0.0015269001
      0.0000000000       0.0000000000       4.2563133225
Li Pa
1 1
direct
   0.6666666666666666    0.3333333333333333    0.7499850000000000 Li
   0.3333333333333333    0.6666666666666666    0.2500160000000000 Pa
