Li1 Pa1
1.0
      2.7341644535       0.0000000000      -0.0018105671
     -1.3668073233       2.3680267522       0.0018322801
      0.0000000000       0.0000000000       5.1075759870
Li Pa
1 1
direct
   0.6666666666666666    0.3333333333333333    0.7499850000000000 Li
   0.3333333333333333    0.6666666666666666    0.2500160000000000 Pa
