Li1 Pa1
1.0
      2.5822664283       0.0000000000      -0.0017099800
     -1.2908735831       2.2364697104       0.0017304868
      0.0000000000       0.0000000000       4.8238217655
Li Pa
1 1
direct
   0.6666666666666666    0.3333333333333333    0.7499850000000000 Li
   0.3333333333333333    0.6666666666666666    0.2500160000000000 Pa
