Li1 B11
1.0
      3.4109409229       0.0000000000       1.9693076600
      1.1369803076       3.2158659424       1.9693076600
      0.0000000000       0.0000000000       3.9386153200
Li B
1 11
direct
   0.2500000000000000    0.2500000000000000    0.2500000000000000 Li
   0.3026030000000000    0.3026030000000000    0.6973970000000000 B
   0.6973970000000000    0.3026030000000000    0.6973970000000000 B
   0.3026030000000000    0.6973970000000000    0.6973970000000000 B
   0.6973970000000000    0.6973970000000000    0.3026030000000000 B
   0.3026030000000000    0.6973970000000000    0.3026030000000000 B
   0.6973970000000000    0.3026030000000000    0.3026030000000000 B
   0.4391520000000000    0.8536160000000000    0.8536160000000000 B
   0.8536160000000000    0.4391520000000000    0.8536160000000000 B
   0.8536160000000000    0.8536160000000000    0.8536160000000000 B
   0.8536160000000000    0.8536160000000000    0.4391520000000000 B
   0.0000000000000000    0.0000000000000000    0.0000000000000000 B
