Li1 B11
1.0
      4.0504923459       0.0000000000       2.3385528463
      1.3501641153       3.8188408066       2.3385528463
      0.0000000000       0.0000000000       4.6771056925
Li B
1 11
direct
   0.2500000000000000    0.2500000000000000    0.2500000000000000 Li
   0.3026030000000000    0.3026030000000000    0.6973970000000000 B
   0.6973970000000000    0.3026030000000000    0.6973970000000000 B
   0.3026030000000000    0.6973970000000000    0.6973970000000000 B
   0.6973970000000000    0.6973970000000000    0.3026030000000000 B
   0.3026030000000000    0.6973970000000000    0.3026030000000000 B
   0.6973970000000000    0.3026030000000000    0.3026030000000000 B
   0.4391520000000000    0.8536160000000000    0.8536160000000000 B
   0.8536160000000000    0.4391520000000000    0.8536160000000000 B
   0.8536160000000000    0.8536160000000000    0.8536160000000000 B
   0.8536160000000000    0.8536160000000000    0.4391520000000000 B
   0.0000000000000000    0.0000000000000000    0.0000000000000000 B
