Tb2 Zn17
1.0
      5.9825122898       0.0000000000       0.7416684172
      0.6554000219       5.9465025339       0.7416686393
      0.0000000000       0.0000000000       6.0283095750
Tb Zn
2 17
direct
   0.3357193200000000    0.3357193200000000    0.3357193200000000 Tb
   0.6642806800000000    0.6642806800000000    0.6642806800000000 Tb
   0.3504765000000000    0.8386250600000000    0.3504765000000000 Zn
   0.2958265300000000    0.0000000000000000    0.7041734700000000 Zn
   0.7041734700000000    0.2958265300000000    0.0000000000000000 Zn
   0.0000000000000000    0.2958265300000000    0.7041734700000000 Zn
   0.7041734700000000    0.0000000000000000    0.2958265300000000 Zn
   0.6495235000000000    0.6495235000000000    0.1613749400000000 Zn
   0.9006287800000000    0.9006287800000000    0.9006287800000000 Zn
   0.0000000000000000    0.7041734700000000    0.2958265300000000 Zn
   0.0000000000000000    0.0000000000000000    0.5000000000000000 Zn
   0.1613749400000000    0.6495235000000000    0.6495235000000000 Zn
   0.6495235000000000    0.1613749400000000    0.6495235000000000 Zn
   0.0993712200000000    0.0993712200000000    0.0993712200000000 Zn
   0.8386250600000000    0.3504765000000000    0.3504765000000000 Zn
   0.3504765000000000    0.3504765000000000    0.8386250600000000 Zn
   0.2958265300000000    0.7041734700000000    0.0000000000000000 Zn
   0.0000000000000000    0.5000000000000000    0.0000000000000000 Zn
   0.5000000000000000    0.0000000000000000    0.0000000000000000 Zn
