Li3 Rh1
1.0
      3.1037472218       0.0000000000       1.7919492940
      1.0345824073       2.9262409435       1.7919492940
      0.0000000000       0.0000000000       3.5838985880
Li Rh
3 1
direct
   0.2500000000000000    0.2500000000000000    0.2500000000000000 Li
   0.7500000000000000    0.7500000000000000    0.7500000000000000 Li
   0.5000000000000000    0.5000000000000000    0.5000000000000000 Li
   0.0000000000000000    0.0000000000000000    0.0000000000000000 Rh
