Li3 Rh1
1.0
      2.7386004898       0.0000000000       1.5811317300
      0.9128668299       2.5819773031       1.5811317300
      0.0000000000       0.0000000000       3.1622634600
Li Rh
3 1
direct
   0.2500000000000000    0.2500000000000000    0.2500000000000000 Li
   0.7500000000000000    0.7500000000000000    0.7500000000000000 Li
   0.5000000000000000    0.5000000000000000    0.5000000000000000 Li
   0.0000000000000000    0.0000000000000000    0.0000000000000000 Rh
