Li3 Rh1
1.0
      3.4688939538       0.0000000000       2.0027668580
      1.1562979846       3.2705045839       2.0027668580
      0.0000000000       0.0000000000       4.0055337160
Li Rh
3 1
direct
   0.2500000000000000    0.2500000000000000    0.2500000000000000 Li
   0.7500000000000000    0.7500000000000000    0.7500000000000000 Li
   0.5000000000000000    0.5000000000000000    0.5000000000000000 Li
   0.0000000000000000    0.0000000000000000    0.0000000000000000 Rh
