Li2 Zn26
1.0
      5.8946091300       0.0000000000       3.4032541680
      1.9648697100       5.5574907844       3.4032541680
      0.0000000000       0.0000000000       6.8065083360
Li Zn
2 26
direct
   0.2500000000000000    0.2500000000000000    0.2500000000000000 Li
   0.7500000000000000    0.7500000000000000    0.7500000000000000 Li
   0.5000000000000000    0.5000000000000000    0.5000000000000000 Zn
   0.0000000000000000    0.0000000000000000    0.0000000000000000 Zn
   0.9386896600000000    0.0613103400000000    0.3001527400000000 Zn
   0.3001527400000000    0.6998472600000000    0.9386896600000000 Zn
   0.0613103400000000    0.9386896600000000    0.6998472600000000 Zn
   0.6998472600000000    0.3001527400000000    0.0613103400000000 Zn
   0.4386896600000000    0.1998472600000000    0.8001527400000000 Zn
   0.8001527400000000    0.5613103400000000    0.4386896600000000 Zn
   0.1998472600000000    0.4386896600000000    0.5613103400000000 Zn
   0.5613103400000000    0.8001527400000000    0.1998472600000000 Zn
   0.3001527400000000    0.9386896600000000    0.0613103400000000 Zn
   0.9386896600000000    0.3001527400000000    0.6998472600000000 Zn
   0.6998472600000000    0.0613103400000000    0.9386896600000000 Zn
   0.0613103400000000    0.6998472600000000    0.3001527400000000 Zn
   0.8001527400000000    0.4386896600000000    0.1998472600000000 Zn
   0.4386896600000000    0.8001527400000000    0.5613103400000000 Zn
   0.5613103400000000    0.1998472600000000    0.4386896600000000 Zn
   0.1998472600000000    0.5613103400000000    0.8001527400000000 Zn
   0.0613103400000000    0.3001527400000000    0.9386896600000000 Zn
   0.6998472600000000    0.9386896600000000    0.3001527400000000 Zn
   0.9386896600000000    0.6998472600000000    0.0613103400000000 Zn
   0.3001527400000000    0.0613103400000000    0.6998472600000000 Zn
   0.1998472600000000    0.8001527400000000    0.4386896600000000 Zn
   0.5613103400000000    0.4386896600000000    0.8001527400000000 Zn
   0.4386896600000000    0.5613103400000000    0.1998472600000000 Zn
   0.8001527400000000    0.1998472600000000    0.5613103400000000 Zn
