Li6 Ag4
1.0
      3.0849822435       0.0000000000       0.0000000000
     -0.0000000000       3.0849822435       0.0000000000
      0.0000000000       0.0000000000      14.5196682825
Li Ag
6 4
direct
   0.5000000000000000    0.5000000000000000    0.1146765300000000 Li
   0.5000000000000000    0.5000000000000000    0.3038444500000000 Li
   0.5000000000000000    0.5000000000000000    0.5000000000000000 Li
   0.5000000000000000    0.5000000000000000    0.6961555500000000 Li
   0.5000000000000000    0.5000000000000000    0.8853234700000000 Li
   0.0000000000000000    0.0000000000000000    0.0000000000000000 Li
   0.0000000000000000    0.0000000000000000    0.2071866100000000 Ag
   0.0000000000000000    0.0000000000000000    0.4020780500000000 Ag
   0.0000000000000000    0.0000000000000000    0.5979219500000000 Ag
   0.0000000000000000    0.0000000000000000    0.7928133900000000 Ag
