Mg2 F4
1.0
      3.6186899060       0.0000000000       2.6246501491
      2.2467159323       2.8367559210       2.6246501491
      0.0000000000       0.0000000000       5.4109191120
Mg F
2 4
direct
   0.8954029999999999    0.8954029999999999    0.8491330000000000 Mg
   0.1045970000000000    0.1045970000000000    0.1508670000000000 Mg
   0.6487990000000000    0.6487990000000000    0.1040550000000000 F
   0.0000000000000000    0.0000000000000000    0.5000000000000000 F
   0.3512010000000000    0.3512010000000000    0.8959450000000000 F
   0.0000000000000000    0.0000000000000000    0.0000000000000000 F
