Mg2 F4
1.0
      4.0710261443       0.0000000000       2.9527314178
      2.5275554239       3.1913504112       2.9527314178
      0.0000000000       0.0000000000       6.0872840010
Mg F
2 4
direct
   0.8954029999999999    0.8954029999999999    0.8491330000000000 Mg
   0.1045970000000000    0.1045970000000000    0.1508670000000000 Mg
   0.6487990000000000    0.6487990000000000    0.1040550000000000 F
   0.0000000000000000    0.0000000000000000    0.5000000000000000 F
   0.3512010000000000    0.3512010000000000    0.8959450000000000 F
   0.0000000000000000    0.0000000000000000    0.0000000000000000 F
