K3 Na1
1.0
      6.0508569830       0.0000000000       0.0000000000
     -0.0000000000       6.0508569830       0.0000000000
      0.0000000000       0.0000000000       6.0508569830
K Na
3 1
direct
   0.0000000000000000    0.5000000000000000    0.5000000000000000 K
   0.5000000000000000    0.0000000000000000    0.5000000000000000 K
   0.5000000000000000    0.5000000000000000    0.0000000000000000 K
   0.0000000000000000    0.0000000000000000    0.0000000000000000 Na
