K3 Na1
1.0
      5.0954585120       0.0000000000       0.0000000000
     -0.0000000000       5.0954585120       0.0000000000
      0.0000000000       0.0000000000       5.0954585120
K Na
3 1
direct
   0.0000000000000000    0.5000000000000000    0.5000000000000000 K
   0.5000000000000000    0.0000000000000000    0.5000000000000000 K
   0.5000000000000000    0.5000000000000000    0.0000000000000000 K
   0.0000000000000000    0.0000000000000000    0.0000000000000000 Na
