K3 Na1
1.0
      4.7769923550       0.0000000000       0.0000000000
     -0.0000000000       4.7769923550       0.0000000000
      0.0000000000       0.0000000000       4.7769923550
K Na
3 1
direct
   0.0000000000000000    0.5000000000000000    0.5000000000000000 K
   0.5000000000000000    0.0000000000000000    0.5000000000000000 K
   0.5000000000000000    0.5000000000000000    0.0000000000000000 K
   0.0000000000000000    0.0000000000000000    0.0000000000000000 Na
