Li1 O8
1.0
      3.8232463979       0.0000000000       1.5249206187
      1.3241565941       4.6008056188       1.7920886911
      0.0000000000       0.0000000000       5.1119841870
Li O
1 8
direct
   0.0091820000000000    0.6052670000000000    0.6052670000000000 Li
   0.8483590000000000    0.2766260000000000    0.7989960000000000 O
   0.1608000000000000    0.2113970000000000    0.7401690000000000 O
   0.1608000000000000    0.7401690000000000    0.2113970000000000 O
   0.8483590000000000    0.7989960000000000    0.2766260000000000 O
   0.8298670000000000    0.2012360000000000    0.2012360000000000 O
   0.1749920000000000    0.7832280000000000    0.7832280000000000 O
   0.1311250000000000    0.1424400000000000    0.1424400000000000 O
   0.8642940000000000    0.8477830000000000    0.8477830000000000 O
