K1 Li3
1.0
      4.1860182016       0.0000000000       2.4167987355
      1.3953394005       3.9466158087       2.4167987355
      0.0000000000       0.0000000000       4.8335974710
K Li
1 3
direct
   0.0000000000000000    0.0000000000000000    0.0000000000000000 K
   0.2500000000000000    0.2500000000000000    0.2500000000000000 Li
   0.7500000000000000    0.7500000000000000    0.7500000000000000 Li
   0.5000000000000000    0.5000000000000000    0.5000000000000000 Li
