Li1 Hf1
1.0
      2.3676841200       0.0000000000       0.0000000000
     -1.1838413800       2.0504749886       0.0000000000
      0.0000000000       0.0000000000       4.3700904000
Li Hf
1 1
direct
   0.0000000000000000    0.0000000000000000    0.0000000000000000 Li
   0.3333333333333333    0.6666666666666666    0.5000000000000000 Hf
