Mn6 Ge2
1.0
      4.9188965290       0.0000000000       0.0000000000
     -2.4594480905       4.2598894531       0.0000000000
      0.0000000000       0.0000000000       3.9695047000
Mn Ge
6 2
direct
   0.8386660000000000    0.1613340000000000    0.2500000000000000 Mn
   0.8386660000000000    0.6773310000000000    0.2500000000000000 Mn
   0.3226690000000000    0.1613340000000000    0.2500000000000000 Mn
   0.1613340000000000    0.8386660000000000    0.7500000000000000 Mn
   0.1613340000000000    0.3226690000000000    0.7500000000000000 Mn
   0.6773310000000000    0.8386660000000000    0.7500000000000000 Mn
   0.3333333333333333    0.6666666666666666    0.2500000000000000 Ge
   0.6666666666666666    0.3333333333333333    0.7500000000000000 Ge
