Mn6 Ge2
1.0
      4.4011179470       0.0000000000       0.0000000000
     -2.2005588178       3.8114800370       0.0000000000
      0.0000000000       0.0000000000       3.5516621000
Mn Ge
6 2
direct
   0.8386660000000000    0.1613340000000000    0.2500000000000000 Mn
   0.8386660000000000    0.6773310000000000    0.2500000000000000 Mn
   0.3226690000000000    0.1613340000000000    0.2500000000000000 Mn
   0.1613340000000000    0.8386660000000000    0.7500000000000000 Mn
   0.1613340000000000    0.3226690000000000    0.7500000000000000 Mn
   0.6773310000000000    0.8386660000000000    0.7500000000000000 Mn
   0.3333333333333333    0.6666666666666666    0.2500000000000000 Ge
   0.6666666666666666    0.3333333333333333    0.7500000000000000 Ge
