Li3 Eu1
1.0
      3.7925851409       0.0000000000       2.1896500520
      1.2641950470       3.5756835618       2.1896500520
      0.0000000000       0.0000000000       4.3793001040
Li Eu
3 1
direct
   0.2500000000000000    0.2500000000000000    0.2500000000000000 Li
   0.7500000000000000    0.7500000000000000    0.7500000000000000 Li
   0.5000000000000000    0.5000000000000000    0.5000000000000000 Li
   0.0000000000000000    0.0000000000000000    0.0000000000000000 Eu
