Li3 Eu1
1.0
      3.5555485696       0.0000000000       2.0527969238
      1.1851828565       3.3522033392       2.0527969238
      0.0000000000       0.0000000000       4.1055938475
Li Eu
3 1
direct
   0.2500000000000000    0.2500000000000000    0.2500000000000000 Li
   0.7500000000000000    0.7500000000000000    0.7500000000000000 Li
   0.5000000000000000    0.5000000000000000    0.5000000000000000 Li
   0.0000000000000000    0.0000000000000000    0.0000000000000000 Eu
