Li3 Eu1
1.0
      4.0296217122       0.0000000000       2.3265031803
      1.3432072374       3.7991637844       2.3265031803
      0.0000000000       0.0000000000       4.6530063605
Li Eu
3 1
direct
   0.2500000000000000    0.2500000000000000    0.2500000000000000 Li
   0.7500000000000000    0.7500000000000000    0.7500000000000000 Li
   0.5000000000000000    0.5000000000000000    0.5000000000000000 Li
   0.0000000000000000    0.0000000000000000    0.0000000000000000 Eu
