Li3 Eu1
1.0
      4.2666582835       0.0000000000       2.4633563085
      1.4222194278       4.0226440070       2.4633563085
      0.0000000000       0.0000000000       4.9267126170
Li Eu
3 1
direct
   0.2500000000000000    0.2500000000000000    0.2500000000000000 Li
   0.7500000000000000    0.7500000000000000    0.7500000000000000 Li
   0.5000000000000000    0.5000000000000000    0.5000000000000000 Li
   0.0000000000000000    0.0000000000000000    0.0000000000000000 Eu
