Li3 Cd1
1.0
      3.6443195401       0.0000000000       2.1040488675
      1.2147731800       3.4358974128       2.1040488675
      0.0000000000       0.0000000000       4.2080977350
Li Cd
3 1
direct
   0.0000000000000000    0.0000000000000000    0.0000000000000000 Li
   0.5000000000000000    0.5000000000000000    0.5000000000000000 Li
   0.2500010000000000    0.2500010000000000    0.2500010000000000 Li
   0.7499990000000000    0.7499990000000000    0.7499990000000000 Cd
