Li3 Cd1
1.0
      3.4418573434       0.0000000000       1.9871572638
      1.1472857811       3.2450142232       1.9871572638
      0.0000000000       0.0000000000       3.9743145275
Li Cd
3 1
direct
   0.0000000000000000    0.0000000000000000    0.0000000000000000 Li
   0.5000000000000000    0.5000000000000000    0.5000000000000000 Li
   0.2500010000000000    0.2500010000000000    0.2500010000000000 Li
   0.7499990000000000    0.7499990000000000    0.7499990000000000 Cd
