Li3 Cd1
1.0
      3.2393951468       0.0000000000       1.8702656600
      1.0797983823       3.0541310336       1.8702656600
      0.0000000000       0.0000000000       3.7405313200
Li Cd
3 1
direct
   0.0000000000000000    0.0000000000000000    0.0000000000000000 Li
   0.5000000000000000    0.5000000000000000    0.5000000000000000 Li
   0.2500010000000000    0.2500010000000000    0.2500010000000000 Li
   0.7499990000000000    0.7499990000000000    0.7499990000000000 Cd
