Li8 Al4
1.0
      4.4269254561       0.0000000000       2.5558866038
      1.4756418187       4.1737453464       2.5558866038
      0.0000000000       0.0000000000       5.1117732075
Li Al
8 4
direct
   0.6034470000000000    0.6034470000000000    0.6034470000000000 Li
   0.1896580000000000    0.6034470000000000    0.6034470000000000 Li
   0.6034470000000000    0.1896580000000000    0.6034470000000000 Li
   0.5603420000000000    0.1465530000000000    0.1465530000000000 Li
   0.1465530000000000    0.1465530000000000    0.1465530000000000 Li
   0.6034470000000000    0.6034470000000000    0.1896580000000000 Li
   0.1465530000000000    0.5603420000000000    0.1465530000000000 Li
   0.1465530000000000    0.1465530000000000    0.5603420000000000 Li
   0.8750000000000000    0.8750000000000000    0.8750000000000000 Al
   0.3750000000000000    0.8750000000000000    0.8750000000000000 Al
   0.8750000000000000    0.3750000000000000    0.8750000000000000 Al
   0.8750000000000000    0.8750000000000000    0.3750000000000000 Al
