K2 Sb6
1.0
      4.7031162235       0.0000000000       0.0000000000
     -2.3515580314       4.0730181729       0.0000000000
      0.0000000000       0.0000000000       8.3290420500
K Sb
2 6
direct
   0.3333333333333333    0.6666666666666666    0.2500000000000000 K
   0.6666666666666666    0.3333333333333333    0.7500000000000000 K
   0.3333333333333333    0.6666666666666666    0.5985600000000000 Sb
   0.6666666666666666    0.3333333333333333    0.4014400000000000 Sb
   0.6666666666666666    0.3333333333333333    0.0985600000000000 Sb
   0.3333333333333333    0.6666666666666666    0.9014400000000000 Sb
   0.0000000000000000    0.0000000000000000    0.2500000000000000 Sb
   0.0000000000000000    0.0000000000000000    0.7500000000000000 Sb
