K2 Sb6
1.0
      4.1498084325       0.0000000000       0.0000000000
     -2.0749041454       3.5938395643       0.0000000000
      0.0000000000       0.0000000000       7.3491547500
K Sb
2 6
direct
   0.3333333333333333    0.6666666666666666    0.2500000000000000 K
   0.6666666666666666    0.3333333333333333    0.7500000000000000 K
   0.3333333333333333    0.6666666666666666    0.5985600000000000 Sb
   0.6666666666666666    0.3333333333333333    0.4014400000000000 Sb
   0.6666666666666666    0.3333333333333333    0.0985600000000000 Sb
   0.3333333333333333    0.6666666666666666    0.9014400000000000 Sb
   0.0000000000000000    0.0000000000000000    0.2500000000000000 Sb
   0.0000000000000000    0.0000000000000000    0.7500000000000000 Sb
