K3 Li1
1.0
      5.2574174500       0.0000000000       0.0000000000
     -0.0000000000       5.2574174500       0.0000000000
      0.0000000000       0.0000000000       5.2574174500
K Li
3 1
direct
   0.0000000000000000    0.5000000000000000    0.5000000000000000 K
   0.5000000000000000    0.0000000000000000    0.5000000000000000 K
   0.5000000000000000    0.5000000000000000    0.0000000000000000 K
   0.0000000000000000    0.0000000000000000    0.0000000000000000 Li
