Li1 Mg5
1.0
      6.2284563150       0.0000000000       0.0000000000
     -5.7807875315       2.3186555553       0.0000000000
      0.0000000000       0.0000000000       3.8408497050
Li Mg
1 5
direct
   0.7777590700000000    0.2222409300000000    0.5000000000000000 Li
   0.9998895700000000    0.0001104300000000    0.0000000000000000 Mg
   0.3318529600000000    0.6681470400000000    0.0000000000000000 Mg
   0.6683193900000000    0.3316806100000000    0.0000000000000000 Mg
   0.1129518500000000    0.8870481500000000    0.5000000000000000 Mg
   0.4425591600000000    0.5574408400000000    0.5000000000000000 Mg
