Mn3 N2
1.0
      2.7431670456       0.0000000000       0.0125102429
     -1.3819980246       2.3816343875      -0.0000002235
      0.0000000000       0.0000000000       5.2937516250
Mn N
3 2
direct
   0.3303380000000000    0.6651690000000000    0.6654490000000000 Mn
   0.6696620000000000    0.3348310000000000    0.3345510000000000 Mn
   0.0000000000000000    0.0000000000000000    0.0000000000000000 Mn
   0.3394670000000000    0.6697330000000000    0.2423150000000000 N
   0.6605330000000000    0.3302670000000000    0.7576850000000001 N
