Mn3 N2
1.0
      2.4383707072       0.0000000000       0.0111202160
     -1.2284426885       2.1170083444      -0.0000001986
      0.0000000000       0.0000000000       4.7055570000
Mn N
3 2
direct
   0.3303380000000000    0.6651690000000000    0.6654490000000000 Mn
   0.6696620000000000    0.3348310000000000    0.3345510000000000 Mn
   0.0000000000000000    0.0000000000000000    0.0000000000000000 Mn
   0.3394670000000000    0.6697330000000000    0.2423150000000000 N
   0.6605330000000000    0.3302670000000000    0.7576850000000001 N
