Cu6 O1
1.0
      3.7737839920       0.0000000000       0.0000000000
     -1.8868913116       4.0906643678       0.0000000000
      0.0000000000       0.0000000000      24.3739032000
Cu O
6 1
direct
   0.0000000000000000    0.0000000000000000    0.7501170000000000 Cu
   0.0000000000000000    0.0000000000000000    0.2498830000000000 Cu
   0.6022170000000000    0.7221450000000000    0.0000000000000000 Cu
   0.3977830000000000    0.2778550000000000    0.0000000000000000 Cu
   0.8800720000000000    0.2778550000000000    0.0000000000000000 Cu
   0.1199280000000000    0.7221450000000000    0.0000000000000000 Cu
   0.0000000000000000    0.0000000000000000    0.0000000000000000 O
