Mn2 O6
1.0
      3.4999516693       0.0000000000      -1.2894110412
     -1.4287393215       3.0075552585      -1.6809395702
      0.0000000000       0.0000000000       3.7299118650
Mn O
2 6
direct
   0.5000000000000000    0.5000000000000000    0.0000000000000000 Mn
   0.0000000000000000    0.0000000000000000    0.0000000000000000 Mn
   0.7500000000000000    0.5660490000000000    0.8160490000000000 O
   0.2500000000000000    0.4339510000000000    0.1839510000000000 O
   0.1093270000000000    0.1093270000000000    0.5000000000000000 O
   0.3906730000000000    0.8906730000000000    0.0000000000000000 O
   0.6093270000000000    0.1093270000000000    0.0000000000000000 O
   0.8906730000000000    0.8906730000000000    0.5000000000000000 O
