Mn2 O6
1.0
      4.1999420032       0.0000000000      -1.5472932495
     -1.7144871858       3.6090663102      -2.0171274843
      0.0000000000       0.0000000000       4.4758942380
Mn O
2 6
direct
   0.5000000000000000    0.5000000000000000    0.0000000000000000 Mn
   0.0000000000000000    0.0000000000000000    0.0000000000000000 Mn
   0.7500000000000000    0.5660490000000000    0.8160490000000000 O
   0.2500000000000000    0.4339510000000000    0.1839510000000000 O
   0.1093270000000000    0.1093270000000000    0.5000000000000000 O
   0.3906730000000000    0.8906730000000000    0.0000000000000000 O
   0.6093270000000000    0.1093270000000000    0.0000000000000000 O
   0.8906730000000000    0.8906730000000000    0.5000000000000000 O
