Mn2 O6
1.0
      3.9666118919       0.0000000000      -1.4613325134
     -1.6192378977       3.4085626263      -1.9050648463
      0.0000000000       0.0000000000       4.2272334470
Mn O
2 6
direct
   0.5000000000000000    0.5000000000000000    0.0000000000000000 Mn
   0.0000000000000000    0.0000000000000000    0.0000000000000000 Mn
   0.7500000000000000    0.5660490000000000    0.8160490000000000 O
   0.2500000000000000    0.4339510000000000    0.1839510000000000 O
   0.1093270000000000    0.1093270000000000    0.5000000000000000 O
   0.3906730000000000    0.8906730000000000    0.0000000000000000 O
   0.6093270000000000    0.1093270000000000    0.0000000000000000 O
   0.8906730000000000    0.8906730000000000    0.5000000000000000 O
