Mn2 O6
1.0
      3.7332817806       0.0000000000      -1.3753717773
     -1.5239886096       3.2080589424      -1.7930022083
      0.0000000000       0.0000000000       3.9785726560
Mn O
2 6
direct
   0.5000000000000000    0.5000000000000000    0.0000000000000000 Mn
   0.0000000000000000    0.0000000000000000    0.0000000000000000 Mn
   0.7500000000000000    0.5660490000000000    0.8160490000000000 O
   0.2500000000000000    0.4339510000000000    0.1839510000000000 O
   0.1093270000000000    0.1093270000000000    0.5000000000000000 O
   0.3906730000000000    0.8906730000000000    0.0000000000000000 O
   0.6093270000000000    0.1093270000000000    0.0000000000000000 O
   0.8906730000000000    0.8906730000000000    0.5000000000000000 O
