Li1 O1
1.0
      2.2843089000       0.0000000000       0.0000000000
     -0.0000000000       2.2843089000       0.0000000000
      0.0000000000       0.0000000000       2.2843089000
Li O
1 1
direct
   0.5000000000000000    0.5000000000000000    0.5000000000000000 Li
   0.0000000000000000    0.0000000000000000    0.0000000000000000 O
