Zn2 Ni2
1.0
      2.5455627040       0.0000000000       0.0000000000
     -0.0000000000       3.0508264640       0.0000000000
      0.0000000000       0.0000000000       3.0508264640
Zn Ni
2 2
direct
   0.5000000000000000    0.0000000000000000    0.5000000000000000 Zn
   0.5000000000000000    0.5000000000000000    0.0000000000000000 Zn
   0.0000000000000000    0.0000000000000000    0.0000000000000000 Ni
   0.0000000000000000    0.5000000000000000    0.5000000000000000 Ni
