K1 O2
1.0
      3.4839792000       0.0000000000       0.0000000000
     -0.0000000000       3.4839792000       0.0000000000
      0.0000000000       0.0000000000       4.8900879000
K O
1 2
direct
   0.0000000000000000    0.0000000000000000    0.5000000000000000 K
   0.5000000000000000    0.5000000000000000    0.5000000000000000 O
   0.0000000000000000    0.0000000000000000    0.0000000000000000 O
