K1 O2
1.0
      3.0968704000       0.0000000000       0.0000000000
     -0.0000000000       3.0968704000       0.0000000000
      0.0000000000       0.0000000000       4.3467448000
K O
1 2
direct
   0.0000000000000000    0.0000000000000000    0.5000000000000000 K
   0.5000000000000000    0.5000000000000000    0.5000000000000000 O
   0.0000000000000000    0.0000000000000000    0.0000000000000000 O
