K1 O2
1.0
      3.2904248000       0.0000000000       0.0000000000
     -0.0000000000       3.2904248000       0.0000000000
      0.0000000000       0.0000000000       4.6184163500
K O
1 2
direct
   0.0000000000000000    0.0000000000000000    0.5000000000000000 K
   0.5000000000000000    0.5000000000000000    0.5000000000000000 O
   0.0000000000000000    0.0000000000000000    0.0000000000000000 O
