K3 Zr1
1.0
      4.5251758405       0.0000000000      -4.4191881576
     -0.8027012839       4.4534129650      -4.4191881576
      0.0000000000       0.0000000000       6.3250644550
K Zr
3 1
direct
   0.7500000000000000    0.2500000000000000    0.5000000000000000 K
   0.2500000000000000    0.7500000000000000    0.5000000000000000 K
   0.5000000000000000    0.5000000000000000    0.0000000000000000 K
   0.0000000000000000    0.0000000000000000    0.0000000000000000 Zr
