K3 Zr1
1.0
      3.9928022122       0.0000000000      -3.8992836685
     -0.7082658387       3.9294820279      -3.8992836685
      0.0000000000       0.0000000000       5.5809392250
K Zr
3 1
direct
   0.7500000000000000    0.2500000000000000    0.5000000000000000 K
   0.2500000000000000    0.7500000000000000    0.5000000000000000 K
   0.5000000000000000    0.5000000000000000    0.0000000000000000 K
   0.0000000000000000    0.0000000000000000    0.0000000000000000 Zr
