K3 Zr1
1.0
      5.0575494688       0.0000000000      -4.9390926467
     -0.8971367290       4.9773439020      -4.9390926467
      0.0000000000       0.0000000000       7.0691896850
K Zr
3 1
direct
   0.7500000000000000    0.2500000000000000    0.5000000000000000 K
   0.2500000000000000    0.7500000000000000    0.5000000000000000 K
   0.5000000000000000    0.5000000000000000    0.0000000000000000 K
   0.0000000000000000    0.0000000000000000    0.0000000000000000 Zr
