K3 Zr1
1.0
      4.2589890264       0.0000000000      -4.1592359130
     -0.7554835613       4.1914474964      -4.1592359130
      0.0000000000       0.0000000000       5.9530018400
K Zr
3 1
direct
   0.7500000000000000    0.2500000000000000    0.5000000000000000 K
   0.2500000000000000    0.7500000000000000    0.5000000000000000 K
   0.5000000000000000    0.5000000000000000    0.0000000000000000 K
   0.0000000000000000    0.0000000000000000    0.0000000000000000 Zr
