K3 Zr1
1.0
      4.7913626547       0.0000000000      -4.6791404022
     -0.8499190065       4.7153784335      -4.6791404022
      0.0000000000       0.0000000000       6.6971270700
K Zr
3 1
direct
   0.7500000000000000    0.2500000000000000    0.5000000000000000 K
   0.2500000000000000    0.7500000000000000    0.5000000000000000 K
   0.5000000000000000    0.5000000000000000    0.0000000000000000 K
   0.0000000000000000    0.0000000000000000    0.0000000000000000 Zr
