Nd3 Zn11
1.0
      3.2205511832       0.0000000000       0.8995520953
      1.0401756664       5.5980364285       2.4908304190
      0.0000000000       0.0000000000       6.2148381675
Nd Zn
3 11
direct
   0.6986120000000000    0.3013880000000000    0.3013880000000000 Nd
   0.3013880000000000    0.6986120000000000    0.6986120000000000 Nd
   0.0000000000000000    0.0000000000000000    0.0000000000000000 Nd
   0.6620270000000000    0.7004050000000001    0.9755420000000000 Zn
   0.3379730000000000    0.2995950000000000    0.0244580000000000 Zn
   0.6620270000000000    0.9755420000000000    0.7004050000000001 Zn
   0.3379730000000000    0.0244580000000000    0.2995950000000000 Zn
   0.5000000000000000    0.6984089999999999    0.3015910000000000 Zn
   0.5000000000000000    0.3015910000000000    0.6984089999999999 Zn
   0.8620190000000000    0.4158960000000000    0.8600660000000000 Zn
   0.1379810000000000    0.5841040000000000    0.1399340000000000 Zn
   0.8620190000000000    0.8600660000000000    0.4158960000000000 Zn
   0.1379810000000000    0.1399340000000000    0.5841040000000000 Zn
   0.0000000000000000    0.5000000000000000    0.5000000000000000 Zn
