K6 Bi4
1.0
      5.0043580566       0.0000000000       0.9725015049
     -0.4037141272       4.9880465923       0.9725015030
      0.0000000000       0.0000000000       7.0865713875
K Bi
6 4
direct
   0.6555280200000000    0.7605705200000000    0.5162041600000000 K
   0.3444719800000000    0.2394294800000000    0.4837958400000000 K
   0.2394294800000000    0.3444719800000000    0.9837958400000000 K
   0.7605705200000000    0.6555280200000000    0.0162041600000000 K
   0.8437436300000000    0.1562563700000000    0.7500000000000000 K
   0.1562563700000000    0.8437436300000000    0.2500000000000000 K
   0.3195504000000000    0.8862346300000000    0.8450556000000000 Bi
   0.6804496000000000    0.1137653700000000    0.1549444000000000 Bi
   0.1137653700000000    0.6804496000000000    0.6549444000000000 Bi
   0.8862346300000000    0.3195504000000000    0.3450556000000000 Bi
