Cu2 Au6
1.0
      4.7928934020       0.0000000000       0.0000000000
     -2.3964460171       4.1507678386       0.0000000000
      0.0000000000       0.0000000000       3.9985111885
Cu Au
2 6
direct
   0.3333333333333333    0.6666666666666666    0.7500000000000000 Cu
   0.6666666666666666    0.3333333333333333    0.2500000000000000 Cu
   0.1693578200000000    0.3387146400000000    0.2500000000000000 Au
   0.6612853600000000    0.8306421800000000    0.2500000000000000 Au
   0.1693578200000000    0.8306421800000000    0.2500000000000000 Au
   0.8306421800000000    0.6612853600000000    0.7500000000000000 Au
   0.3387146400000000    0.1693578200000000    0.7500000000000000 Au
   0.8306421800000000    0.1693578200000000    0.7500000000000000 Au
