Cu2 Au6
1.0
      5.3567632140       0.0000000000       0.0000000000
     -2.6783808427       4.6390934667       0.0000000000
      0.0000000000       0.0000000000       4.4689242695
Cu Au
2 6
direct
   0.3333333333333333    0.6666666666666666    0.7500000000000000 Cu
   0.6666666666666666    0.3333333333333333    0.2500000000000000 Cu
   0.1693578200000000    0.3387146400000000    0.2500000000000000 Au
   0.6612853600000000    0.8306421800000000    0.2500000000000000 Au
   0.1693578200000000    0.8306421800000000    0.2500000000000000 Au
   0.8306421800000000    0.6612853600000000    0.7500000000000000 Au
   0.3387146400000000    0.1693578200000000    0.7500000000000000 Au
   0.8306421800000000    0.1693578200000000    0.7500000000000000 Au
