Li5 Mg1
1.0
      3.7724972081       0.0000000000       1.9075827499
     -1.3957921167       3.4947585990      -1.9237322525
      0.0000000000       0.0000000000       4.6840959840
Li Mg
5 1
direct
   0.9968277900000000    0.0000000000000000    0.0000000000000000 Li
   0.6699022800000000    0.3365116800000000    0.9997445800000000 Li
   0.3331351800000000    0.6634893200000000    0.0002554200000000 Li
   0.4996117200000000    0.8335880700000000    0.5011809000000000 Li
   0.1672045600000000    0.1664129300000000    0.4988201000000000 Li
   0.8333144700000000    0.5000000000000000    0.5000000000000000 Mg
