Li2 Lu6
1.0
      5.1294934350       0.0000000000       0.0000000000
     -2.5647471532       4.4422713717       0.0000000000
      0.0000000000       0.0000000000       4.0603222500
Li Lu
2 6
direct
   0.6666666666666666    0.3333333333333333    0.2500000000000000 Li
   0.3333333333333333    0.6666666666666666    0.7500000000000000 Li
   0.8321340000000000    0.1678660000000000    0.7500000000000000 Lu
   0.3357310000000000    0.1678660000000000    0.7500000000000000 Lu
   0.8321340000000000    0.6642690000000000    0.7500000000000000 Lu
   0.1678660000000000    0.8321340000000000    0.2500000000000000 Lu
   0.6642690000000000    0.8321340000000000    0.2500000000000000 Lu
   0.1678660000000000    0.3357310000000000    0.2500000000000000 Lu
