K6 Nb2
1.0
      7.0480159665       0.0000000000       0.0000000000
     -3.5240075518       6.1037611224       0.0000000000
      0.0000000000       0.0000000000       5.6159355500
K Nb
6 2
direct
   0.1770770000000000    0.3541540000000000    0.2500000000000000 K
   0.6458460000000000    0.8229230000000000    0.2500000000000000 K
   0.1770770000000000    0.8229230000000000    0.2500000000000000 K
   0.8229230000000000    0.6458460000000000    0.7500000000000000 K
   0.3541540000000000    0.1770770000000000    0.7500000000000000 K
   0.8229230000000000    0.1770770000000000    0.7500000000000000 K
   0.3333333333333333    0.6666666666666666    0.7500000000000000 Nb
   0.6666666666666666    0.3333333333333333    0.2500000000000000 Nb
