K6 Nb2
1.0
      7.4626051410       0.0000000000       0.0000000000
     -3.7313021137       6.4628058943       0.0000000000
      0.0000000000       0.0000000000       5.9462847000
K Nb
6 2
direct
   0.1770770000000000    0.3541540000000000    0.2500000000000000 K
   0.6458460000000000    0.8229230000000000    0.2500000000000000 K
   0.1770770000000000    0.8229230000000000    0.2500000000000000 K
   0.8229230000000000    0.6458460000000000    0.7500000000000000 K
   0.3541540000000000    0.1770770000000000    0.7500000000000000 K
   0.8229230000000000    0.1770770000000000    0.7500000000000000 K
   0.3333333333333333    0.6666666666666666    0.7500000000000000 Nb
   0.6666666666666666    0.3333333333333333    0.2500000000000000 Nb
