Li14 Ge4
1.0
      3.7889244955       0.0000000000       0.0000000000
     -0.0000000000       6.3546567691      -2.3423384132
      0.0000000000       0.0000000000       6.7726074835
Li Ge
14 4
direct
   0.5000000000000000    0.8160386900000000    0.4993749400000000 Li
   0.5000000000000000    0.1839613100000000    0.5006250600000000 Li
   0.5000000000000000    0.4993749400000000    0.8160386900000000 Li
   0.5000000000000000    0.5006250600000000    0.1839613100000000 Li
   0.0000000000000000    0.0000000000000000    0.0000000000000000 Li
   0.5000000000000000    0.5000000000000000    0.5000000000000000 Li
   0.0000000000000000    0.3397378600000000    0.3397378600000000 Li
   0.0000000000000000    0.6602621400000001    0.6602621400000001 Li
   0.5000000000000000    0.1730582000000000    0.8269417999999999 Li
   0.5000000000000000    0.8269417999999999    0.1730582000000000 Li
   0.0000000000000000    0.3452361400000000    0.0238757500000000 Li
   0.0000000000000000    0.6547638600000000    0.9761242500000000 Li
   0.0000000000000000    0.0238757500000000    0.3452361400000000 Li
   0.0000000000000000    0.9761242500000000    0.6547638600000000 Li
   0.5000000000000000    0.8458225500000000    0.8458225500000000 Ge
   0.5000000000000000    0.1541774500000000    0.1541774500000000 Ge
   0.0000000000000000    0.6799031700000000    0.3200968300000000 Ge
   0.0000000000000000    0.3200968300000000    0.6799031700000000 Ge
