Li3 Pb1
1.0
      3.0404582957       0.0000000000      -1.7844978206
     -0.9968645430       2.8723940765      -1.7844978206
      0.0000000000       0.0000000000       3.5254530375
Li Pb
3 1
direct
   0.7500019999999999    0.2500010000000000    0.5000010000000000 Li
   0.2500010000000000    0.7500019999999999    0.5000010000000000 Li
   0.5000000000000000    0.5000000000000000    0.0000000000000000 Li
   0.0000000000000000    0.0000000000000000    0.0000000000000000 Pb
