Li3 Pb1
1.0
      3.4458527351       0.0000000000      -2.0224308633
     -1.1297798154       3.2553799534      -2.0224308633
      0.0000000000       0.0000000000       3.9955134425
Li Pb
3 1
direct
   0.7500019999999999    0.2500010000000000    0.5000010000000000 Li
   0.2500010000000000    0.7500019999999999    0.5000010000000000 Li
   0.5000000000000000    0.5000000000000000    0.0000000000000000 Li
   0.0000000000000000    0.0000000000000000    0.0000000000000000 Pb
