Mn1 O2
1.0
      2.3367976000       0.0000000000       0.0000000000
     -0.0000000000       2.3367976000       0.0000000000
      0.0000000000       0.0000000000       2.9642288000
Mn O
1 2
direct
   0.0000000000000000    0.0000000000000000    0.0000000000000000 Mn
   0.0000000000000000    0.0000000000000000    0.5000000000000000 O
   0.5000000000000000    0.5000000000000000    0.0000000000000000 O
