K2 O4
1.0
      5.2002702414       0.0000000000       1.7738019940
      3.2280953119       4.3676531607      -0.9540951799
      0.0000000000       0.0000000000       8.5097390250
K O
2 4
direct
   0.5000000000000000    0.5000000000000000    0.5000000000000000 K
   0.0000000000000000    0.0000000000000000    0.0000000000000000 K
   0.2431080000000000    0.6544160000000000    0.7635790000000000 O
   0.1611030000000000    0.8455840000000000    0.7364210000000000 O
   0.7568920000000000    0.3455840000000000    0.2364210000000000 O
   0.8388970000000000    0.1544160000000000    0.2635790000000000 O
