K2 O4
1.0
      5.5469549242       0.0000000000       1.8920554603
      3.4433016660       4.6588300380      -1.0177015252
      0.0000000000       0.0000000000       9.0770549600
K O
2 4
direct
   0.5000000000000000    0.5000000000000000    0.5000000000000000 K
   0.0000000000000000    0.0000000000000000    0.0000000000000000 K
   0.2431080000000000    0.6544160000000000    0.7635790000000000 O
   0.1611030000000000    0.8455840000000000    0.7364210000000000 O
   0.7568920000000000    0.3455840000000000    0.2364210000000000 O
   0.8388970000000000    0.1544160000000000    0.2635790000000000 O
