K2 O4
1.0
      6.2403242897       0.0000000000       2.1285623928
      3.8737143743       5.2411837928      -1.1449142159
      0.0000000000       0.0000000000      10.2116868300
K O
2 4
direct
   0.5000000000000000    0.5000000000000000    0.5000000000000000 K
   0.0000000000000000    0.0000000000000000    0.0000000000000000 K
   0.2431080000000000    0.6544160000000000    0.7635790000000000 O
   0.1611030000000000    0.8455840000000000    0.7364210000000000 O
   0.7568920000000000    0.3455840000000000    0.2364210000000000 O
   0.8388970000000000    0.1544160000000000    0.2635790000000000 O
