Hf2 Zn4
1.0
      3.5676394235       0.0000000000       2.0597776554
      1.1892134158       3.3636034313       2.0597776558
      0.0000000000       0.0000000000       4.1195553200
Hf Zn
2 4
direct
   0.1250000000000000    0.1250000000000000    0.1250000000000000 Hf
   0.8750000000000000    0.8750000000000000    0.8750000000000000 Hf
   0.5000000000000000    0.0000000000000000    0.5000000000000000 Zn
   0.0000000000000000    0.5000000000000000    0.5000000000000000 Zn
   0.5000000000000000    0.5000000000000000    0.5000000000000000 Zn
   0.5000000000000000    0.5000000000000000    0.0000000000000000 Zn
