Hf2 Zn4
1.0
      4.2365718154       0.0000000000       2.4459859658
      1.4121909313       3.9942790746       2.4459859663
      0.0000000000       0.0000000000       4.8919719425
Hf Zn
2 4
direct
   0.1250000000000000    0.1250000000000000    0.1250000000000000 Hf
   0.8750000000000000    0.8750000000000000    0.8750000000000000 Hf
   0.5000000000000000    0.0000000000000000    0.5000000000000000 Zn
   0.0000000000000000    0.5000000000000000    0.5000000000000000 Zn
   0.5000000000000000    0.5000000000000000    0.5000000000000000 Zn
   0.5000000000000000    0.5000000000000000    0.0000000000000000 Zn
