Li2 Al2
1.0
      3.6795169496       0.0000000000      -2.1218006712
     -1.2235406459       3.4701285399      -2.1218015024
      0.0000000000       0.0000000000       4.2513150845
Li Al
2 2
direct
   0.3750000000000000    0.6250000000000000    0.7500000000000000 Li
   0.6250000000000000    0.3750000000000000    0.2500000000000000 Li
   0.8750000000000000    0.1250000000000000    0.7500000000000000 Al
   0.1250000000000000    0.8750000000000000    0.2500000000000000 Al
