Li2 Al2
1.0
      3.0985405892       0.0000000000      -1.7867795126
     -1.0303500176       2.9222135073      -1.7867802125
      0.0000000000       0.0000000000       3.5800548080
Li Al
2 2
direct
   0.3750000000000000    0.6250000000000000    0.7500000000000000 Li
   0.6250000000000000    0.3750000000000000    0.2500000000000000 Li
   0.8750000000000000    0.1250000000000000    0.7500000000000000 Al
   0.1250000000000000    0.8750000000000000    0.2500000000000000 Al
