Mg1 Cl6
1.0
      9.1717401600       0.0000000000       0.0000000000
     -4.5858701634       7.1033586317       0.0000000000
      0.0000000000       0.0000000000      42.6661510770
Mg Cl
1 6
direct
   0.0000000000000000    0.0000000000000000    0.0000000000000000 Mg
   0.0000000000000000    0.0000000000000000    0.7500180700000000 Cl
   0.0000000000000000    0.0000000000000000    0.2499819300000000 Cl
   0.7474355200000000    0.7561826500000000    0.0000000000000000 Cl
   0.2525644800000000    0.2438173500000000    0.0000000000000000 Cl
   0.9912528700000000    0.2438173500000000    0.0000000000000000 Cl
   0.0087471300000000    0.7561826500000000    0.0000000000000000 Cl
