Mg1 Cl6
1.0
      8.1526579200       0.0000000000       0.0000000000
     -4.0763290342       6.3140965615       0.0000000000
      0.0000000000       0.0000000000      37.9254676240
Mg Cl
1 6
direct
   0.0000000000000000    0.0000000000000000    0.0000000000000000 Mg
   0.0000000000000000    0.0000000000000000    0.7500180700000000 Cl
   0.0000000000000000    0.0000000000000000    0.2499819300000000 Cl
   0.7474355200000000    0.7561826500000000    0.0000000000000000 Cl
   0.2525644800000000    0.2438173500000000    0.0000000000000000 Cl
   0.9912528700000000    0.2438173500000000    0.0000000000000000 Cl
   0.0087471300000000    0.7561826500000000    0.0000000000000000 Cl
