Li5 Ga4
1.0
      3.2355374175       0.0000000000       0.0000000000
     -1.6177702175       2.8020567274       0.0000000000
      0.0000000000       0.0000000000       6.1645672200
Li Ga
5 4
direct
   0.6666666666666666    0.3333333333333333    0.8814655900000000 Li
   0.3333333333333333    0.6666666666666666    0.1185344100000000 Li
   0.6666666666666666    0.3333333333333333    0.5531347800000000 Li
   0.3333333333333333    0.6666666666666666    0.4468652200000000 Li
   0.0000000000000000    0.0000000000000000    0.0000000000000000 Li
   0.6666666666666666    0.3333333333333333    0.2219171700000000 Ga
   0.3333333333333333    0.6666666666666666    0.7780828300000000 Ga
   0.0000000000000000    0.0000000000000000    0.6666666666666666 Ga
   0.0000000000000000    0.0000000000000000    0.3333983200000000 Ga
