Mn2 N2
1.0
      2.4378516000       0.0000000000       0.0000000000
     -0.0000000000       2.6730785278       0.3060821324
      0.0000000000       0.0000000000       4.3980276150
Mn N
2 2
direct
   0.0000000000000000    0.9385300000000000    0.9376290000000000 Mn
   0.0000000000000000    0.3496520000000000    0.3790230000000000 Mn
   0.0000000000000000    0.8181750000000000    0.5639390000000000 N
   0.5000000000000000    0.3985070000000000    0.0900790000000000 N
