Mn2 N2
1.0
      2.0315430000       0.0000000000       0.0000000000
     -0.0000000000       2.2275654398       0.2550684436
      0.0000000000       0.0000000000       3.6650230125
Mn N
2 2
direct
   0.0000000000000000    0.9385300000000000    0.9376290000000000 Mn
   0.0000000000000000    0.3496520000000000    0.3790230000000000 Mn
   0.0000000000000000    0.8181750000000000    0.5639390000000000 N
   0.5000000000000000    0.3985070000000000    0.0900790000000000 N
