Li5 Mg1
1.0
      4.5951287929       0.0000000000       1.2690157782
      3.9503569826       2.3473151330       1.2690157782
      0.0000000000       0.0000000000       5.8153647200
Li Mg
5 1
direct
   0.9997956000000000    0.9997956000000000    0.0033886200000000 Li
   0.2778477800000000    0.2778477800000000    0.9437418600000000 Li
   0.6663627700000000    0.6663627700000000    0.6684867900000000 Li
   0.9448493500000000    0.9448493500000000    0.6118287700000000 Li
   0.3325218700000000    0.3325218700000000    0.3318046700000000 Li
   0.6119576200000000    0.6119576200000000    0.2740812800000000 Mg
