Mn4 Br8
1.0
      5.0342274799       0.0000000000       2.9064326070
      1.6780775346       4.7462519456       2.9064747120
      0.0000000000       0.0000000000       5.8129848075
Mn Br
4 8
direct
   0.5000000000000000    0.5000000000000000    0.0000000000000000 Mn
   0.5000000000000000    0.5000000000000000    0.5000000000000000 Mn
   0.5000000000000000    0.0000000000000000    0.5000000000000000 Mn
   0.0000000000000000    0.5000000000000000    0.5000000000000000 Mn
   0.7459152800000000    0.7459124700000000    0.7459152800000000 Br
   0.7459152800000000    0.2622579800000000    0.7459152800000000 Br
   0.2540847200000000    0.2540875300000000    0.2540847200000000 Br
   0.2540847200000000    0.7377420200000000    0.2540847200000000 Br
   0.2540935600000000    0.2540860100000000    0.7377344200000000 Br
   0.2622655800000000    0.7459139900000000    0.7459064399999999 Br
   0.7377344200000000    0.2540860100000000    0.2540935600000000 Br
   0.7459064399999999    0.7459139900000000    0.2622655800000000 Br
