K6 Tb2
1.0
      7.3426549770       0.0000000000       0.0000000000
     -3.6713271666       6.3589259271       0.0000000000
      0.0000000000       0.0000000000       6.0433614500
K Tb
6 2
direct
   0.1713360000000000    0.3426720000000000    0.2500000000000000 K
   0.6573280000000000    0.8286640000000000    0.2500000000000000 K
   0.1713360000000000    0.8286640000000000    0.2500000000000000 K
   0.8286640000000000    0.6573280000000000    0.7500000000000000 K
   0.3426720000000000    0.1713360000000000    0.7500000000000000 K
   0.8286640000000000    0.1713360000000000    0.7500000000000000 K
   0.3333333333333333    0.6666666666666666    0.7500000000000000 Tb
   0.6666666666666666    0.3333333333333333    0.2500000000000000 Tb
