K6 Tb2
1.0
      8.2064967390       0.0000000000       0.0000000000
     -4.1032480098       7.1070348597       0.0000000000
      0.0000000000       0.0000000000       6.7543451500
K Tb
6 2
direct
   0.1713360000000000    0.3426720000000000    0.2500000000000000 K
   0.6573280000000000    0.8286640000000000    0.2500000000000000 K
   0.1713360000000000    0.8286640000000000    0.2500000000000000 K
   0.8286640000000000    0.6573280000000000    0.7500000000000000 K
   0.3426720000000000    0.1713360000000000    0.7500000000000000 K
   0.8286640000000000    0.1713360000000000    0.7500000000000000 K
   0.3333333333333333    0.6666666666666666    0.7500000000000000 Tb
   0.6666666666666666    0.3333333333333333    0.2500000000000000 Tb
