Mn2 O8
1.0
      4.6241629900       0.0000000000      -3.4498714494
     -1.1633711233       4.4754274642      -3.4498714494
      0.0000000000       0.0000000000       5.7692717370
Mn O
2 8
direct
   0.5000000000000000    0.5000000000000000    0.0000000000000000 Mn
   0.2500000000000000    0.7500000000000000    0.5000000000000000 Mn
   0.1551380000000000    0.4259850000000000    0.2708470000000000 O
   0.1759850000000000    0.4051380000000000    0.7708469999999999 O
   0.6342910000000000    0.4051380000000000    0.2291530000000000 O
   0.1551380000000000    0.8842910000000000    0.7291530000000001 O
   0.5948620000000000    0.8240150000000001    0.2291530000000000 O
   0.5740150000000001    0.8448620000000000    0.7291530000000001 O
   0.1157090000000000    0.8448620000000000    0.2708470000000000 O
   0.5948620000000000    0.3657090000000000    0.7708469999999999 O
