Mn6 Co2
1.0
      4.2281274685       0.0000000000       0.0000000000
     -2.1140634006       3.6616659908       0.0000000000
      0.0000000000       0.0000000000       3.3603118000
Mn Co
6 2
direct
   0.1623920000000000    0.3247840000000000    0.2500000000000000 Mn
   0.6752160000000000    0.8376080000000000    0.2500000000000000 Mn
   0.1623920000000000    0.8376080000000000    0.2500000000000000 Mn
   0.8376080000000000    0.6752160000000000    0.7500000000000000 Mn
   0.3247840000000000    0.1623920000000000    0.7500000000000000 Mn
   0.8376080000000000    0.1623920000000000    0.7500000000000000 Mn
   0.3333333333333333    0.6666666666666666    0.7500000000000000 Co
   0.6666666666666666    0.3333333333333333    0.2500000000000000 Co
