Mn6 Co2
1.0
      4.4768408490       0.0000000000       0.0000000000
     -2.2384200713       3.8770581079       0.0000000000
      0.0000000000       0.0000000000       3.5579772000
Mn Co
6 2
direct
   0.1623920000000000    0.3247840000000000    0.2500000000000000 Mn
   0.6752160000000000    0.8376080000000000    0.2500000000000000 Mn
   0.1623920000000000    0.8376080000000000    0.2500000000000000 Mn
   0.8376080000000000    0.6752160000000000    0.7500000000000000 Mn
   0.3247840000000000    0.1623920000000000    0.7500000000000000 Mn
   0.8376080000000000    0.1623920000000000    0.7500000000000000 Mn
   0.3333333333333333    0.6666666666666666    0.7500000000000000 Co
   0.6666666666666666    0.3333333333333333    0.2500000000000000 Co
