Cu1 Ni1
1.0
      1.7802393052       0.0000000000       2.7031027613
      0.8101613233       1.5852099590       2.7031027613
      0.0000000000       0.0000000000       3.2366673600
Cu Ni
1 1
direct
   0.0000000000000000    0.0000000000000000    0.0000000000000000 Cu
   0.5000000000000000    0.5000000000000000    0.5000000000000000 Ni
