Cu1 Ni1
1.0
      1.8989219256       0.0000000000       2.8833096120
      0.8641720782       1.6908906229       2.8833096120
      0.0000000000       0.0000000000       3.4524451840
Cu Ni
1 1
direct
   0.0000000000000000    0.0000000000000000    0.0000000000000000 Cu
   0.5000000000000000    0.5000000000000000    0.5000000000000000 Ni
