Cu1 Ni1
1.0
      2.1362871662       0.0000000000       3.2437233135
      0.9721935880       1.9022519508       3.2437233135
      0.0000000000       0.0000000000       3.8840008320
Cu Ni
1 1
direct
   0.0000000000000000    0.0000000000000000    0.0000000000000000 Cu
   0.5000000000000000    0.5000000000000000    0.5000000000000000 Ni
