Cu1 Ni1
1.0
      2.0176045459       0.0000000000       3.0635164628
      0.9181828331       1.7965712868       3.0635164628
      0.0000000000       0.0000000000       3.6682230080
Cu Ni
1 1
direct
   0.0000000000000000    0.0000000000000000    0.0000000000000000 Cu
   0.5000000000000000    0.5000000000000000    0.5000000000000000 Ni
