Cu1 Ni1
1.0
      2.2549697866       0.0000000000       3.4239301643
      1.0262043429       2.0079326147       3.4239301643
      0.0000000000       0.0000000000       4.0997786560
Cu Ni
1 1
direct
   0.0000000000000000    0.0000000000000000    0.0000000000000000 Cu
   0.5000000000000000    0.5000000000000000    0.5000000000000000 Ni
