K1 O2
1.0
      3.2715526168       0.0000000000      -1.6454439139
     -0.8275845395       3.1651487782      -1.6454433331
      0.0000000000       0.0000000000       4.0750517710
K O
1 2
direct
   0.0000000000000000    0.0000000000000000    0.0000000000000000 K
   0.6014488099999999    0.6014488099999999    0.2028966100000000 O
   0.3985511900000000    0.3985511900000000    0.7971033900000000 O
