K1 O2
1.0
      2.7549916773       0.0000000000      -1.3856369801
     -0.6969132964       2.6653884448      -1.3856364911
      0.0000000000       0.0000000000       3.4316225440
K O
1 2
direct
   0.0000000000000000    0.0000000000000000    0.0000000000000000 K
   0.6014488099999999    0.6014488099999999    0.2028966100000000 O
   0.3985511900000000    0.3985511900000000    0.7971033900000000 O
