K1 O2
1.0
      2.9271786571       0.0000000000      -1.4722392914
     -0.7404703775       2.8319752226      -1.4722387718
      0.0000000000       0.0000000000       3.6460989530
K O
1 2
direct
   0.0000000000000000    0.0000000000000000    0.0000000000000000 K
   0.6014488099999999    0.6014488099999999    0.2028966100000000 O
   0.3985511900000000    0.3985511900000000    0.7971033900000000 O
