K1 O2
1.0
      2.5828046975       0.0000000000      -1.2990346689
     -0.6533562154       2.4988016670      -1.2990342104
      0.0000000000       0.0000000000       3.2171461350
K O
1 2
direct
   0.0000000000000000    0.0000000000000000    0.0000000000000000 K
   0.6014488099999999    0.6014488099999999    0.2028966100000000 O
   0.3985511900000000    0.3985511900000000    0.7971033900000000 O
