K1 O2
1.0
      3.0993656370       0.0000000000      -1.5588416026
     -0.7840274585       2.9985620004      -1.5588410524
      0.0000000000       0.0000000000       3.8605753620
K O
1 2
direct
   0.0000000000000000    0.0000000000000000    0.0000000000000000 K
   0.6014488099999999    0.6014488099999999    0.2028966100000000 O
   0.3985511900000000    0.3985511900000000    0.7971033900000000 O
