Mg2 Cl4
1.0
      3.4859651500       0.0000000000       0.0000000000
     -0.0000000000       6.0046887500       0.0000000000
      0.0000000000       0.0000000000       6.1844249500
Mg Cl
2 4
direct
   0.0000000000000000    0.0000000000000000    0.0000000000000000 Mg
   0.0000000000000000    0.5000000000000000    0.0000000000000000 Mg
   0.0000000000000000    0.2500000000000000    0.7270270000000000 Cl
   0.5000000000000000    0.2500000000000000    0.1715980000000000 Cl
   0.0000000000000000    0.7500000000000000    0.2729730000000000 Cl
   0.5000000000000000    0.7500000000000000    0.8284020000000000 Cl
