Li4 Zn8
1.0
      4.3598293390       0.0000000000       2.5171486425
      1.4532764463       4.1104865206       2.5171486425
      0.0000000000       0.0000000000       5.0342972850
Li Zn
4 8
direct
   0.8750000000000000    0.8750000000000000    0.8750000000000000 Li
   0.3750000000000000    0.8750000000000000    0.8750000000000000 Li
   0.8750000000000000    0.3750000000000000    0.8750000000000000 Li
   0.8750000000000000    0.8750000000000000    0.3750000000000000 Li
   0.5980860000000000    0.5980860000000000    0.5980860000000000 Zn
   0.2057410000000000    0.5980860000000000    0.5980860000000000 Zn
   0.5980860000000000    0.2057410000000000    0.5980860000000000 Zn
   0.5442590000000000    0.1519140000000000    0.1519140000000000 Zn
   0.1519140000000000    0.1519140000000000    0.1519140000000000 Zn
   0.5980860000000000    0.5980860000000000    0.2057410000000000 Zn
   0.1519140000000000    0.5442590000000000    0.1519140000000000 Zn
   0.1519140000000000    0.1519140000000000    0.5442590000000000 Zn
