Li4 Zn8
1.0
      4.6504846283       0.0000000000       2.6849585520
      1.5501615428       4.3845189553       2.6849585520
      0.0000000000       0.0000000000       5.3699171040
Li Zn
4 8
direct
   0.8750000000000000    0.8750000000000000    0.8750000000000000 Li
   0.3750000000000000    0.8750000000000000    0.8750000000000000 Li
   0.8750000000000000    0.3750000000000000    0.8750000000000000 Li
   0.8750000000000000    0.8750000000000000    0.3750000000000000 Li
   0.5980860000000000    0.5980860000000000    0.5980860000000000 Zn
   0.2057410000000000    0.5980860000000000    0.5980860000000000 Zn
   0.5980860000000000    0.2057410000000000    0.5980860000000000 Zn
   0.5442590000000000    0.1519140000000000    0.1519140000000000 Zn
   0.1519140000000000    0.1519140000000000    0.1519140000000000 Zn
   0.5980860000000000    0.5980860000000000    0.2057410000000000 Zn
   0.1519140000000000    0.5442590000000000    0.1519140000000000 Zn
   0.1519140000000000    0.1519140000000000    0.5442590000000000 Zn
