Th4 Cu2
1.0
      4.5197770285       0.0000000000       2.5124748642
      2.2598894594       4.6512907106       1.2562379068
      0.0000000000       0.0000000000       5.3216283150
Th Cu
4 2
direct
   0.1611395500000000    0.5000000000000000    0.1777229100000000 Th
   0.3388604500000000    0.8222770900000000    0.5000000000000000 Th
   0.6611395500000000    0.1777229100000000    0.5000000000000000 Th
   0.8388604500000000    0.5000000000000000    0.8222770900000000 Th
   0.2500000000000000    0.0000000000000000    0.0000000000000000 Cu
   0.7500000000000000    0.0000000000000000    0.0000000000000000 Cu
