Th4 Cu2
1.0
      3.7664808571       0.0000000000       2.0937290535
      1.8832412162       3.8760755922       1.0468649223
      0.0000000000       0.0000000000       4.4346902625
Th Cu
4 2
direct
   0.1611395500000000    0.5000000000000000    0.1777229100000000 Th
   0.3388604500000000    0.8222770900000000    0.5000000000000000 Th
   0.6611395500000000    0.1777229100000000    0.5000000000000000 Th
   0.8388604500000000    0.5000000000000000    0.8222770900000000 Th
   0.2500000000000000    0.0000000000000000    0.0000000000000000 Cu
   0.7500000000000000    0.0000000000000000    0.0000000000000000 Cu
