Li3 Ga1
1.0
      3.6601270628       0.0000000000       2.1131753450
      1.2200423543       3.4508008882       2.1131753450
      0.0000000000       0.0000000000       4.2263506900
Li Ga
3 1
direct
   0.0000000000000000    0.0000000000000000    0.0000000000000000 Li
   0.5000000000000000    0.5000000000000000    0.5000000000000000 Li
   0.2500010000000000    0.2500010000000000    0.2500010000000000 Li
   0.7500010000000000    0.7500010000000000    0.7500010000000000 Ga
