Li3 Ga1
1.0
      2.8895739970       0.0000000000       1.6682963250
      0.9631913323       2.7243164907       1.6682963250
      0.0000000000       0.0000000000       3.3365926500
Li Ga
3 1
direct
   0.0000000000000000    0.0000000000000000    0.0000000000000000 Li
   0.5000000000000000    0.5000000000000000    0.5000000000000000 Li
   0.2500010000000000    0.2500010000000000    0.2500010000000000 Li
   0.7500010000000000    0.7500010000000000    0.7500010000000000 Ga
