Li3 Ga1
1.0
      3.4674887964       0.0000000000       2.0019555900
      1.1558295988       3.2691797888       2.0019555900
      0.0000000000       0.0000000000       4.0039111800
Li Ga
3 1
direct
   0.0000000000000000    0.0000000000000000    0.0000000000000000 Li
   0.5000000000000000    0.5000000000000000    0.5000000000000000 Li
   0.2500010000000000    0.2500010000000000    0.2500010000000000 Li
   0.7500010000000000    0.7500010000000000    0.7500010000000000 Ga
