Li3 N1
1.0
      3.2487544530       0.0000000000       0.0000000000
     -1.6243776810       2.8135041026       0.0000000000
      0.0000000000       0.0000000000       3.4691747490
Li N
3 1
direct
   0.0000000000000000    0.0000000000000000    0.5000000000000000 Li
   0.3333333333333333    0.6666666666666666    0.0000000000000000 Li
   0.6666666666666666    0.3333333333333333    0.0000000000000000 Li
   0.0000000000000000    0.0000000000000000    0.0000000000000000 N
