Li2 Mg4
1.0
      4.0612467225       0.0000000000       0.0000000000
     -2.0306225307       3.5171433122       0.0000000000
      0.0000000000       0.0000000000       3.7851336150
Li Mg
2 4
direct
   0.6666666666666666    0.3333333333333333    0.5000000000000000 Li
   0.3333333333333333    0.6666666666666666    0.5000000000000000 Li
   0.6614568199999999    0.0000000000000000    0.0000000000000000 Mg
   0.3385431800000000    0.3385431800000000    0.0000000000000000 Mg
   0.0000000000000000    0.6614568199999999    0.0000000000000000 Mg
   0.0000000000000000    0.0000000000000000    0.5000000000000000 Mg
