Ti2 Cu3
1.0
      2.8878144521       0.0000000000      -0.6204321562
     -0.1335598965       2.8847246781      -0.6204322535
      0.0000000000       0.0000000000       7.0206262930
Ti Cu
2 3
direct
   0.6046237600000000    0.6046237600000000    0.2092021900000000 Ti
   0.3953917000000000    0.3953917000000000    0.7908159200000000 Ti
   0.7942059500000000    0.7942059500000000    0.5884630800000000 Cu
   0.2057929500000000    0.2057929500000000    0.4115178400000000 Cu
   0.9999856499999999    0.9999856499999999    0.0000009700000000 Cu
