Ti2 Cu3
1.0
      2.7358242178       0.0000000000      -0.5877778322
     -0.1265304282       2.7328970635      -0.5877779244
      0.0000000000       0.0000000000       6.6511196460
Ti Cu
2 3
direct
   0.6046237600000000    0.6046237600000000    0.2092021900000000 Ti
   0.3953917000000000    0.3953917000000000    0.7908159200000000 Ti
   0.7942059500000000    0.7942059500000000    0.5884630800000000 Cu
   0.2057929500000000    0.2057929500000000    0.4115178400000000 Cu
   0.9999856499999999    0.9999856499999999    0.0000009700000000 Cu
