K6 Tc3
1.0
      9.1382069705       0.0000000000       0.0000000000
     -4.4970780536       7.9550678067       0.0000000000
      0.0000000000       0.0000000000       2.4075502000
K Tc
6 3
direct
   0.3535280000000000    0.3535280000000000    0.0000000000000000 K
   0.6501890000000000    0.0014350000000000    0.0000000000000000 K
   0.0014350000000000    0.6501890000000000    0.0000000000000000 K
   0.6831130000000000    0.6831130000000000    0.5000000000000000 K
   0.3123460000000000    0.0012120000000000    0.5000000000000000 K
   0.0012120000000000    0.3123460000000000    0.5000000000000000 K
   0.9952010000000000    0.9952010000000000    0.0000000000000000 Tc
   0.6683200000000000    0.3347540000000000    0.5000000000000000 Tc
   0.3347540000000000    0.6683200000000000    0.5000000000000000 Tc
