K6 Tc3
1.0
      8.0631237975       0.0000000000       0.0000000000
     -3.9680100473       7.0191774765       0.0000000000
      0.0000000000       0.0000000000       2.1243090000
K Tc
6 3
direct
   0.3535280000000000    0.3535280000000000    0.0000000000000000 K
   0.6501890000000000    0.0014350000000000    0.0000000000000000 K
   0.0014350000000000    0.6501890000000000    0.0000000000000000 K
   0.6831130000000000    0.6831130000000000    0.5000000000000000 K
   0.3123460000000000    0.0012120000000000    0.5000000000000000 K
   0.0012120000000000    0.3123460000000000    0.5000000000000000 K
   0.9952010000000000    0.9952010000000000    0.0000000000000000 Tc
   0.6683200000000000    0.3347540000000000    0.5000000000000000 Tc
   0.3347540000000000    0.6683200000000000    0.5000000000000000 Tc
