Mn16 O24
1.0
      7.0920982488       0.0000000000      -2.5074352494
     -3.5460494994       6.1419367481      -2.5074352498
      0.0000000000       0.0000000000       7.5223057500
Mn O
16 24
direct
   0.7500000000000000    0.8688830000000000    0.1188830000000000 Mn
   0.3811170000000000    0.2500000000000000    0.6311170000000000 Mn
   0.6311170000000000    0.3811170000000000    0.2500000000000000 Mn
   0.1188830000000000    0.7500000000000000    0.8688830000000000 Mn
   0.8688830000000000    0.1188830000000000    0.7500000000000000 Mn
   0.2500000000000000    0.6311170000000000    0.3811170000000000 Mn
   0.7500000000000000    0.3650390000000000    0.6150390000000000 Mn
   0.8849610000000000    0.2500000000000000    0.1349610000000000 Mn
   0.1349610000000000    0.8849610000000000    0.2500000000000000 Mn
   0.6150390000000000    0.7500000000000000    0.3650390000000000 Mn
   0.3650390000000000    0.6150390000000000    0.7500000000000000 Mn
   0.2500000000000000    0.1349610000000000    0.8849610000000000 Mn
   0.9782450000000000    0.5000000000000000    0.0000000000000000 Mn
   0.5000000000000000    0.0000000000000000    0.9782450000000000 Mn
   0.0000000000000000    0.9782450000000000    0.5000000000000000 Mn
   0.5217550000000000    0.5217550000000000    0.5217550000000000 Mn
   0.3744430000000000    0.4399250000000000    0.7422790000000000 O
   0.1976460000000000    0.6321639999999999    0.7577210000000000 O
   0.3023550000000000    0.0600750000000000    0.4345180000000000 O
   0.8678360000000001    0.0654820000000000    0.1255570000000000 O
   0.0654820000000000    0.1255570000000000    0.8678360000000001 O
   0.7422790000000000    0.3744430000000000    0.4399250000000000 O
   0.6321639999999999    0.7577210000000000    0.1976460000000000 O
   0.4345180000000000    0.3023550000000000    0.0600750000000000 O
   0.4399250000000000    0.7422790000000000    0.3744430000000000 O
   0.7577210000000000    0.1976460000000000    0.6321639999999999 O
   0.0600750000000000    0.4345180000000000    0.3023550000000000 O
   0.1255570000000000    0.8678360000000001    0.0654820000000000 O
   0.8854090000000000    0.2698020000000000    0.9515560000000000 O
   0.8182469999999999    0.9338540000000000    0.5484440000000000 O
   0.6817530000000001    0.2301980000000000    0.1156070000000000 O
   0.5661460000000000    0.3843930000000000    0.6145910000000000 O
   0.6145910000000000    0.5661460000000000    0.3843930000000000 O
   0.2301980000000000    0.1156070000000000    0.6817530000000001 O
   0.5484440000000000    0.8182469999999999    0.9338540000000000 O
   0.2698020000000000    0.9515560000000000    0.8854090000000000 O
   0.1156070000000000    0.6817530000000001    0.2301980000000000 O
   0.9338540000000000    0.5484440000000000    0.8182469999999999 O
   0.9515560000000000    0.8854090000000000    0.2698020000000000 O
   0.3843930000000000    0.6145910000000000    0.5661460000000000 O
