Cu1 I2
1.0
      2.8693746975       0.0000000000       0.0000000000
     -0.0000000000       2.8693746975       0.0000000000
      0.0000000000       0.0000000000       6.6933783675
Cu I
1 2
direct
   0.5000000000000000    0.5000000000000000    0.0000000000000000 Cu
   0.5000000000000000    0.5000000000000000    0.2643158300000000 I
   0.5000000000000000    0.5000000000000000    0.7356841700000000 I
