Li2 Si2
1.0
      3.0477580178       0.0000000000       1.7596239120
      1.0159193393       2.8734538157       1.7596239120
      0.0000000000       0.0000000000       3.5192478240
Li Si
2 2
direct
   0.0000000000000000    0.0000000000000000    0.0000000000000000 Li
   0.2500000000000000    0.2500000000000000    0.2500000000000000 Li
   0.7500000000000000    0.7500000000000000    0.7500000000000000 Si
   0.5000000000000000    0.5000000000000000    0.5000000000000000 Si
