K4 O2
1.0
      3.9316254894       0.0000000000       0.9409868779
     -1.8466158257       3.4709781015      -0.9409868779
      0.0000000000       0.0000000000       9.1451603890
K O
4 2
direct
   0.1157175400000000    0.8842824600000000    0.6698740900000000 K
   0.2966220200000000    0.7033779800000000    0.1043400400000000 K
   0.7033779800000000    0.2966220200000000    0.8956599600000000 K
   0.8842824600000000    0.1157175400000000    0.3301259100000000 K
   0.5920493999999999    0.4079506000000000    0.2124634200000000 O
   0.4079506000000000    0.5920493999999999    0.7875365800000000 O
