Mn7 Sb4
1.0
      4.2203466045       0.0000000000       0.0000000000
     -2.1101734050       3.6549273130       0.0000000000
      0.0000000000       0.0000000000      10.3607361000
Mn Sb
7 4
direct
   0.6666666666666666    0.3333333333333333    0.8742320000000000 Mn
   0.6666666666666666    0.3333333333333333    0.3745250000000000 Mn
   0.6666666666666666    0.3333333333333333    0.1257680000000000 Mn
   0.6666666666666666    0.3333333333333333    0.6254750000000000 Mn
   0.3333333333333333    0.6666666666666666    0.5000000000000000 Mn
   0.0000000000000000    0.0000000000000000    0.7435260000000000 Mn
   0.0000000000000000    0.0000000000000000    0.2564740000000000 Mn
   0.3333333333333333    0.6666666666666666    0.7589710000000000 Sb
   0.3333333333333333    0.6666666666666666    0.2410290000000000 Sb
   0.0000000000000000    0.0000000000000000    0.0000000000000000 Sb
   0.0000000000000000    0.0000000000000000    0.5000000000000000 Sb
