Mg8 Cu2
1.0
      4.8543223509       0.0000000000       2.8026443160
      1.6181074503       4.5766990031       2.8026443160
      0.0000000000       0.0000000000       5.6052886320
Mg Cu
8 2
direct
   0.6074380000000000    0.6074380000000000    0.6074380000000000 Mg
   0.1776850000000000    0.6074380000000000    0.6074380000000000 Mg
   0.6074380000000000    0.1776850000000000    0.6074380000000000 Mg
   0.5723150000000000    0.1425620000000000    0.1425620000000000 Mg
   0.1425620000000000    0.1425620000000000    0.1425620000000000 Mg
   0.6074380000000000    0.6074380000000000    0.1776850000000000 Mg
   0.1425620000000000    0.5723150000000000    0.1425620000000000 Mg
   0.1425620000000000    0.1425620000000000    0.5723150000000000 Mg
   0.0000000000000000    0.0000000000000000    0.0000000000000000 Cu
   0.7500000000000000    0.7500000000000000    0.7500000000000000 Cu
