Mg8 Bi4
1.0
      4.7565993870       0.0000000000       0.0000000000
     -0.0000000000       3.0644867700       0.0000000000
      0.0000000000       0.0000000000      15.6243124530
Mg Bi
8 4
direct
   0.0000000000000000    0.0000000000000000    0.0059201000000000 Mg
   0.0000000000000000    0.5000000000000000    0.1626643100000000 Mg
   0.0000000000000000    0.0000000000000000    0.3309585000000000 Mg
   0.5000000000000000    0.5000000000000000    0.0555331600000000 Mg
   0.0000000000000000    0.5000000000000000    0.5059201000000000 Mg
   0.0000000000000000    0.0000000000000000    0.6626643100000000 Mg
   0.0000000000000000    0.5000000000000000    0.8309585000000000 Mg
   0.5000000000000000    0.0000000000000000    0.5555331600000000 Mg
   0.5000000000000000    0.5000000000000000    0.4028826600000000 Bi
   0.5000000000000000    0.0000000000000000    0.2087082700000000 Bi
   0.5000000000000000    0.0000000000000000    0.9028826599999999 Bi
   0.5000000000000000    0.5000000000000000    0.7087082700000000 Bi
