Dy1 Zn1
1.0
      3.0132555760       0.0000000000       0.0000000000
     -0.0000000000       3.0132555760       0.0000000000
      0.0000000000       0.0000000000       3.0132555760
Dy Zn
1 1
direct
   0.0000000000000000    0.0000000000000000    0.0000000000000000 Dy
   0.5000000000000000    0.5000000000000000    0.5000000000000000 Zn
