Dy1 Zn1
1.0
      2.8360052480       0.0000000000       0.0000000000
     -0.0000000000       2.8360052480       0.0000000000
      0.0000000000       0.0000000000       2.8360052480
Dy Zn
1 1
direct
   0.0000000000000000    0.0000000000000000    0.0000000000000000 Dy
   0.5000000000000000    0.5000000000000000    0.5000000000000000 Zn
