Ho1 Cu5
1.0
      3.1863583178       0.0000000000       1.8396473025
      1.0621211784       3.0041265689       1.8396473024
      0.0000000000       0.0000000000       3.6792923175
Ho Cu
1 5
direct
   0.0000000000000000    0.0000000000000000    0.0000000000000000 Ho
   0.6239535100000000    0.6239535100000000    0.1281414800000000 Cu
   0.1281414800000000    0.6239535100000000    0.6239535100000000 Cu
   0.2500000000000000    0.2500000000000000    0.2500000000000000 Cu
   0.6239535100000000    0.1281414800000000    0.6239535100000000 Cu
   0.6239535100000000    0.6239535100000000    0.6239535100000000 Cu
