Ho1 Cu5
1.0
      3.8236299814       0.0000000000       2.2075767629
      1.2745454141       3.6049518826       2.2075767629
      0.0000000000       0.0000000000       4.4151507810
Ho Cu
1 5
direct
   0.0000000000000000    0.0000000000000000    0.0000000000000000 Ho
   0.6239535100000000    0.6239535100000000    0.1281414800000000 Cu
   0.1281414800000000    0.6239535100000000    0.6239535100000000 Cu
   0.2500000000000000    0.2500000000000000    0.2500000000000000 Cu
   0.6239535100000000    0.1281414800000000    0.6239535100000000 Cu
   0.6239535100000000    0.6239535100000000    0.6239535100000000 Cu
