Ho1 Cu5
1.0
      4.0360538692       0.0000000000       2.3302199164
      1.3453534927       3.8052269872       2.3302199164
      0.0000000000       0.0000000000       4.6604369355
Ho Cu
1 5
direct
   0.0000000000000000    0.0000000000000000    0.0000000000000000 Ho
   0.6239535100000000    0.6239535100000000    0.1281414800000000 Cu
   0.1281414800000000    0.6239535100000000    0.6239535100000000 Cu
   0.2500000000000000    0.2500000000000000    0.2500000000000000 Cu
   0.6239535100000000    0.1281414800000000    0.6239535100000000 Cu
   0.6239535100000000    0.6239535100000000    0.6239535100000000 Cu
