Ho1 Cu5
1.0
      3.3987822057       0.0000000000       1.9622904559
      1.1329292570       3.2044016735       1.9622904559
      0.0000000000       0.0000000000       3.9245784720
Ho Cu
1 5
direct
   0.0000000000000000    0.0000000000000000    0.0000000000000000 Ho
   0.6239535100000000    0.6239535100000000    0.1281414800000000 Cu
   0.1281414800000000    0.6239535100000000    0.6239535100000000 Cu
   0.2500000000000000    0.2500000000000000    0.2500000000000000 Cu
   0.6239535100000000    0.1281414800000000    0.6239535100000000 Cu
   0.6239535100000000    0.6239535100000000    0.6239535100000000 Cu
