Li6 Mg2
1.0
      5.1773127870       0.0000000000       0.0000000000
     -2.5886563948       4.4836842980       0.0000000000
      0.0000000000       0.0000000000       4.2598121195
Li Mg
6 2
direct
   0.3335558100000000    0.1667784100000000    0.2500000000000000 Li
   0.8332215900000000    0.1667784100000000    0.2500000000000000 Li
   0.8332215900000000    0.6664441900000000    0.2500000000000000 Li
   0.6664441900000000    0.8332215900000000    0.7500000000000000 Li
   0.1667784100000000    0.3335558100000000    0.7500000000000000 Li
   0.1667784100000000    0.8332215900000000    0.7500000000000000 Li
   0.3333333333333333    0.6666666666666666    0.2500000000000000 Mg
   0.6666666666666666    0.3333333333333333    0.7500000000000000 Mg
