Li3 In1
1.0
      3.8319763059       0.0000000000       2.2123925518
      1.2773254353       3.6128219083       2.2123925518
      0.0000000000       0.0000000000       4.4247851035
Li In
3 1
direct
   0.0000000000000000    0.0000000000000000    0.0000000000000000 Li
   0.5000000000000000    0.5000000000000000    0.5000000000000000 Li
   0.2500000000000000    0.2500000000000000    0.2500000000000000 Li
   0.7500010000000000    0.7500010000000000    0.7500010000000000 In
