Li3 In1
1.0
      3.0252444520       0.0000000000       1.7466256988
      1.0084148173       2.8522278224       1.7466256988
      0.0000000000       0.0000000000       3.4932513975
Li In
3 1
direct
   0.0000000000000000    0.0000000000000000    0.0000000000000000 Li
   0.5000000000000000    0.5000000000000000    0.5000000000000000 Li
   0.2500000000000000    0.2500000000000000    0.2500000000000000 Li
   0.7500010000000000    0.7500010000000000    0.7500010000000000 In
