Li3 In1
1.0
      3.2269274155       0.0000000000       1.8630674120
      1.0756424718       3.0423763439       1.8630674120
      0.0000000000       0.0000000000       3.7261348240
Li In
3 1
direct
   0.0000000000000000    0.0000000000000000    0.0000000000000000 Li
   0.5000000000000000    0.5000000000000000    0.5000000000000000 Li
   0.2500000000000000    0.2500000000000000    0.2500000000000000 Li
   0.7500010000000000    0.7500010000000000    0.7500010000000000 In
