Al3 Cu2
1.0
      3.8873543145       0.0000000000       0.0000000000
     -1.9436766851       3.3665472592       0.0000000000
      0.0000000000       0.0000000000       4.7431397650
Al Cu
3 2
direct
   0.0000000000000000    0.0000000000000000    0.0000000000000000 Al
   0.3333333333333333    0.6666666666666666    0.3499253500000000 Al
   0.6666666666666666    0.3333333333333333    0.6500746500000000 Al
   0.3333333333333333    0.6666666666666666    0.8395121300000000 Cu
   0.6666666666666666    0.3333333333333333    0.1604878700000000 Cu
