Al3 Cu2
1.0
      3.6827567190       0.0000000000       0.0000000000
     -1.8413779122       3.1893605613       0.0000000000
      0.0000000000       0.0000000000       4.4935008300
Al Cu
3 2
direct
   0.0000000000000000    0.0000000000000000    0.0000000000000000 Al
   0.3333333333333333    0.6666666666666666    0.3499253500000000 Al
   0.6666666666666666    0.3333333333333333    0.6500746500000000 Al
   0.3333333333333333    0.6666666666666666    0.8395121300000000 Cu
   0.6666666666666666    0.3333333333333333    0.1604878700000000 Cu
