Li1 N1
1.0
      2.4255602313       0.0000000000      -1.3811324570
     -0.7864273330       2.2945314305      -1.3811324570
      0.0000000000       0.0000000000       2.8204642030
Li N
1 1
direct
   0.5000000000000000    0.5000000000000000    0.0000000000000000 Li
   0.7500000000000000    0.2500000000000000    0.5000000000000000 N
