Li1 N1
1.0
      2.2828802177       0.0000000000      -1.2998893713
     -0.7401669017       2.1595589934      -1.2998893713
      0.0000000000       0.0000000000       2.6545545440
Li N
1 1
direct
   0.5000000000000000    0.5000000000000000    0.0000000000000000 Li
   0.7500000000000000    0.2500000000000000    0.5000000000000000 N
