Mn2 F6
1.0
      3.8935757421       0.0000000000       2.1909377007
      1.3360203065       3.6571822214       2.1909377007
      0.0000000000       0.0000000000       4.5644941605
Mn F
2 6
direct
   0.0000000000000000    0.5000000000000000    0.0000000000000000 Mn
   0.5000000000000000    0.0000000000000000    0.5000000000000000 Mn
   0.6763809400000000    0.3236190600000000    0.2500000000000000 F
   0.3236190600000000    0.6763809400000000    0.7500000000000000 F
   0.8234156500000001    0.7507679300000000    0.2473578300000000 F
   0.2492320700000000    0.1765843500000000    0.2526421700000000 F
   0.1765843500000000    0.2492320700000000    0.7526421700000000 F
   0.7507679300000000    0.8234156500000001    0.7473578300000000 F
