Li3 Mg3
1.0
      4.2915227040       0.0000000000       0.0000000000
     -2.1279936343       3.7267694068       0.0000000000
      0.0000000000       0.0000000000       4.0141927200
Li Mg
3 3
direct
   0.3337065700000000    0.3337065700000000    0.0000000000000000 Li
   0.6675050700000000    0.3341630900000000    0.5000000000000000 Li
   0.3341630900000000    0.6675050700000000    0.5000000000000000 Li
   0.6609352700000000    0.9981873000000000    0.0000000000000000 Mg
   0.9981873000000000    0.6609352700000000    0.0000000000000000 Mg
   0.0055017100000000    0.0055017100000000    0.5000000000000000 Mg
