Cu2 Br2
1.0
      3.8992117965       0.0000000000       0.0000000000
     -1.9496073575       3.3768169224       0.0000000000
      0.0000000000       0.0000000000       5.7598258415
Cu Br
2 2
direct
   0.0000000000000000    0.0000000000000000    0.5000000000000000 Cu
   0.0000000000000000    0.0000000000000000    0.0000000000000000 Cu
   0.6666666666666666    0.3333333333333333    0.5000000000000000 Br
   0.3333333333333333    0.6666666666666666    0.0000000000000000 Br
