Cu2 Br2
1.0
      3.6939901230       0.0000000000       0.0000000000
     -1.8469964440       3.1990897160       0.0000000000
      0.0000000000       0.0000000000       5.4566771130
Cu Br
2 2
direct
   0.0000000000000000    0.0000000000000000    0.5000000000000000 Cu
   0.0000000000000000    0.0000000000000000    0.0000000000000000 Cu
   0.6666666666666666    0.3333333333333333    0.5000000000000000 Br
   0.3333333333333333    0.6666666666666666    0.0000000000000000 Br
