Cu2 Br2
1.0
      3.2835467760       0.0000000000       0.0000000000
     -1.6417746169       2.8436353031       0.0000000000
      0.0000000000       0.0000000000       4.8503796560
Cu Br
2 2
direct
   0.0000000000000000    0.0000000000000000    0.5000000000000000 Cu
   0.0000000000000000    0.0000000000000000    0.0000000000000000 Cu
   0.6666666666666666    0.3333333333333333    0.5000000000000000 Br
   0.3333333333333333    0.6666666666666666    0.0000000000000000 Br
