Cu2 Br2
1.0
      3.0783251025       0.0000000000       0.0000000000
     -1.5391637033       2.6659080966       0.0000000000
      0.0000000000       0.0000000000       4.5472309275
Cu Br
2 2
direct
   0.0000000000000000    0.0000000000000000    0.5000000000000000 Cu
   0.0000000000000000    0.0000000000000000    0.0000000000000000 Cu
   0.6666666666666666    0.3333333333333333    0.5000000000000000 Br
   0.3333333333333333    0.6666666666666666    0.0000000000000000 Br
