Cu2 Br2
1.0
      3.4887684495       0.0000000000       0.0000000000
     -1.7443855304       3.0213625095       0.0000000000
      0.0000000000       0.0000000000       5.1535283845
Cu Br
2 2
direct
   0.0000000000000000    0.0000000000000000    0.5000000000000000 Cu
   0.0000000000000000    0.0000000000000000    0.0000000000000000 Cu
   0.6666666666666666    0.3333333333333333    0.5000000000000000 Br
   0.3333333333333333    0.6666666666666666    0.0000000000000000 Br
