Cu6 S6
1.0
      3.5794734790       0.0000000000       0.0000000000
     -1.7897372235       3.0999142577       0.0000000000
      0.0000000000       0.0000000000      15.5102470670
Cu S
6 6
direct
   0.3333333333333333    0.6666666666666666    0.3936518200000000 Cu
   0.6666666666666666    0.3333333333333333    0.8936518200000000 Cu
   0.6666666666666666    0.3333333333333333    0.6063481800000000 Cu
   0.3333333333333333    0.6666666666666666    0.1063481800000000 Cu
   0.6666666666666666    0.3333333333333333    0.2500000000000000 Cu
   0.3333333333333333    0.6666666666666666    0.7500000000000000 Cu
   0.0000000000000000    0.0000000000000000    0.4358721800000000 S
   0.0000000000000000    0.0000000000000000    0.9358721800000001 S
   0.0000000000000000    0.0000000000000000    0.5641278199999999 S
   0.0000000000000000    0.0000000000000000    0.0641278200000000 S
   0.6666666666666666    0.3333333333333333    0.7500000000000000 S
   0.3333333333333333    0.6666666666666666    0.2500000000000000 S
