Li2 Mg4
1.0
      6.1858484925       0.0000000000       0.0000000000
     -5.7373305934       2.3125222668       0.0000000000
      0.0000000000       0.0000000000       3.7630322250
Li Mg
2 4
direct
   0.4444371400000000    0.5555628600000000    0.2500000000000000 Li
   0.5555628600000000    0.4444371400000000    0.7500000000000000 Li
   0.1058806700000000    0.8941193300000000    0.2500000000000000 Mg
   0.7792275900000000    0.2207724100000000    0.2500000000000000 Mg
   0.2207724100000000    0.7792275900000000    0.7500000000000000 Mg
   0.8941193300000000    0.1058806700000000    0.7500000000000000 Mg
