Mn1 Br2
1.0
      3.2907056315       0.0000000000       0.0000000000
     -1.6453519232       2.8498334317       0.0000000000
      0.0000000000       0.0000000000       5.5109136130
Mn Br
1 2
direct
   0.0000000000000000    0.0000000000000000    0.0000000000000000 Mn
   0.3333333333333333    0.6666666666666666    0.2321269400000000 Br
   0.6666666666666666    0.3333333333333333    0.7678730600000000 Br
