Mn1 Br2
1.0
      2.9035637925       0.0000000000       0.0000000000
     -1.4517811087       2.5145589103       0.0000000000
      0.0000000000       0.0000000000       4.8625708350
Mn Br
1 2
direct
   0.0000000000000000    0.0000000000000000    0.0000000000000000 Mn
   0.3333333333333333    0.6666666666666666    0.2321269400000000 Br
   0.6666666666666666    0.3333333333333333    0.7678730600000000 Br
