Mn1 Br2
1.0
      3.6778474705       0.0000000000       0.0000000000
     -1.8389227377       3.1851079531       0.0000000000
      0.0000000000       0.0000000000       6.1592563910
Mn Br
1 2
direct
   0.0000000000000000    0.0000000000000000    0.0000000000000000 Mn
   0.3333333333333333    0.6666666666666666    0.2321269400000000 Br
   0.6666666666666666    0.3333333333333333    0.7678730600000000 Br
