K5 Sb4
1.0
      5.4809616387       0.0000000000       1.9705103611
      3.4638998372       4.2476273851       1.9705103611
      0.0000000000       0.0000000000       9.6844455560
K Sb
5 4
direct
   0.1005380000000000    0.1005380000000000    0.1095940000000000 K
   0.8993960000000000    0.8993960000000000    0.8934650000000000 K
   0.7519930000000000    0.7519930000000000    0.3345420000000000 K
   0.2418120000000000    0.2418120000000000    0.6667530000000000 K
   0.9793950000000000    0.9793950000000000    0.5128070000000000 K
   0.4568780000000000    0.4568780000000000    0.3240960000000000 Sb
   0.5446080000000000    0.5446080000000000    0.6752300000000000 Sb
   0.3951470000000000    0.3951470000000000    0.1093060000000000 Sb
   0.6052330000000000    0.6052330000000000    0.8915070000000000 Sb
