K5 Sb4
1.0
      6.1257806550       0.0000000000       2.2023351094
      3.8714174651       4.7473482539       2.2023351094
      0.0000000000       0.0000000000      10.8237920920
K Sb
5 4
direct
   0.1005380000000000    0.1005380000000000    0.1095940000000000 K
   0.8993960000000000    0.8993960000000000    0.8934650000000000 K
   0.7519930000000000    0.7519930000000000    0.3345420000000000 K
   0.2418120000000000    0.2418120000000000    0.6667530000000000 K
   0.9793950000000000    0.9793950000000000    0.5128070000000000 K
   0.4568780000000000    0.4568780000000000    0.3240960000000000 Sb
   0.5446080000000000    0.5446080000000000    0.6752300000000000 Sb
   0.3951470000000000    0.3951470000000000    0.1093060000000000 Sb
   0.6052330000000000    0.6052330000000000    0.8915070000000000 Sb
