K5 Sb4
1.0
      4.8361426224       0.0000000000       1.7386856127
      3.0563822093       3.7479065163       1.7386856127
      0.0000000000       0.0000000000       8.5450990200
K Sb
5 4
direct
   0.1005380000000000    0.1005380000000000    0.1095940000000000 K
   0.8993960000000000    0.8993960000000000    0.8934650000000000 K
   0.7519930000000000    0.7519930000000000    0.3345420000000000 K
   0.2418120000000000    0.2418120000000000    0.6667530000000000 K
   0.9793950000000000    0.9793950000000000    0.5128070000000000 K
   0.4568780000000000    0.4568780000000000    0.3240960000000000 Sb
   0.5446080000000000    0.5446080000000000    0.6752300000000000 Sb
   0.3951470000000000    0.3951470000000000    0.1093060000000000 Sb
   0.6052330000000000    0.6052330000000000    0.8915070000000000 Sb
