Li2 N1
1.0
      2.2251826206       0.0000000000       1.2847097850
      0.7417275402       2.0979222939       1.2847097850
      0.0000000000       0.0000000000       2.5694195700
Li N
2 1
direct
   0.2500000000000000    0.2500000000000000    0.2500000000000000 Li
   0.7500000000000000    0.7500000000000000    0.7500000000000000 Li
   0.0000000000000000    0.0000000000000000    0.0000000000000000 N
