Li2 N1
1.0
      2.5218736367       0.0000000000       1.4560044230
      0.8406245456       2.3776452664       1.4560044230
      0.0000000000       0.0000000000       2.9120088460
Li N
2 1
direct
   0.2500000000000000    0.2500000000000000    0.2500000000000000 Li
   0.7500000000000000    0.7500000000000000    0.7500000000000000 Li
   0.0000000000000000    0.0000000000000000    0.0000000000000000 N
