K1 C2
1.0
      3.1267998589       0.0000000000      -1.5851610060
     -0.8036124883       3.0217684104      -1.5851610060
      0.0000000000       0.0000000000       3.8764556800
K C
1 2
direct
   0.2500000000000000    0.7500000000000000    0.5000000000000000 K
   0.6650710000000000    0.1650710000000000    0.3301430000000000 C
   0.8349280000000000    0.3349280000000000    0.6698570000000000 C
