K1 C2
1.0
      3.3222248500       0.0000000000      -1.6842335689
     -0.8538382688       3.2106289360      -1.6842335689
      0.0000000000       0.0000000000       4.1187341600
K C
1 2
direct
   0.2500000000000000    0.7500000000000000    0.5000000000000000 K
   0.6650710000000000    0.1650710000000000    0.3301430000000000 C
   0.8349280000000000    0.3349280000000000    0.6698570000000000 C
