Li4 Mg2
1.0
      2.6325047280       0.0000000000       0.0000000000
      1.3162519684       5.9383916319       0.0000000000
      0.0000000000       0.0000000000       3.9224548400
Li Mg
4 2
direct
   0.9810857500000000    0.0378325000000000    0.0000000000000000 Li
   0.6420755800000000    0.7158528300000000    0.0000000000000000 Li
   0.7966942500000000    0.4066125000000000    0.5000010000000000 Li
   0.1357044200000000    0.7285921700000000    0.5000010000000000 Li
   0.3119313300000000    0.3761403500000000    0.0000000000000000 Mg
   0.4658476700000000    0.0683046500000000    0.5000010000000000 Mg
