Cu3 Pd1
1.0
      3.4828460150       0.0000000000       0.0000000000
     -0.0000000000       3.4910754185       0.0000000000
      0.0000000000       0.0000000000       3.4910754185
Cu Pd
3 1
direct
   0.0000000000000000    0.5000000000000000    0.5000000000000000 Cu
   0.5000000000000000    0.5000000000000000    0.0000000000000000 Cu
   0.5000000000000000    0.0000000000000000    0.5000000000000000 Cu
   0.0000000000000000    0.0000000000000000    0.0000000000000000 Pd
