Cu3 Pd1
1.0
      3.1162306450       0.0000000000       0.0000000000
     -0.0000000000       3.1235937955       0.0000000000
      0.0000000000       0.0000000000       3.1235937955
Cu Pd
3 1
direct
   0.0000000000000000    0.5000000000000000    0.5000000000000000 Cu
   0.5000000000000000    0.5000000000000000    0.0000000000000000 Cu
   0.5000000000000000    0.0000000000000000    0.5000000000000000 Cu
   0.0000000000000000    0.0000000000000000    0.0000000000000000 Pd
