Cu3 Pd1
1.0
      2.9329229600       0.0000000000       0.0000000000
     -0.0000000000       2.9398529840       0.0000000000
      0.0000000000       0.0000000000       2.9398529840
Cu Pd
3 1
direct
   0.0000000000000000    0.5000000000000000    0.5000000000000000 Cu
   0.5000000000000000    0.5000000000000000    0.0000000000000000 Cu
   0.5000000000000000    0.0000000000000000    0.5000000000000000 Cu
   0.0000000000000000    0.0000000000000000    0.0000000000000000 Pd
