Cu3 Pd1
1.0
      2.7496152750       0.0000000000       0.0000000000
     -0.0000000000       2.7561121725       0.0000000000
      0.0000000000       0.0000000000       2.7561121725
Cu Pd
3 1
direct
   0.0000000000000000    0.5000000000000000    0.5000000000000000 Cu
   0.5000000000000000    0.5000000000000000    0.0000000000000000 Cu
   0.5000000000000000    0.0000000000000000    0.5000000000000000 Cu
   0.0000000000000000    0.0000000000000000    0.0000000000000000 Pd
