Mn3 Pd5
1.0
      3.0743372100       0.0000000000       0.0000000000
     -0.0000000000       4.0410364376      -0.5285605410
      0.0000000000       0.0000000000       4.0754577675
Mn Pd
3 5
direct
   0.0000000000000000    0.0000000000000000    0.0000000000000000 Mn
   0.5000000000000000    0.7243414200000000    0.2756585800000000 Mn
   0.5000000000000000    0.2756585800000000    0.7243414200000000 Mn
   0.0000000000000000    0.5000000000000000    0.5000000000000000 Pd
   0.0000000000000000    0.0000000000000000    0.5000000000000000 Pd
   0.0000000000000000    0.5000000000000000    0.0000000000000000 Pd
   0.5000000000000000    0.2235008000000000    0.2235008000000000 Pd
   0.5000000000000000    0.7764991999999999    0.7764991999999999 Pd
