K1 In3
1.0
      3.5932168230       0.0000000000       2.0745447000
      1.1977389410       3.3877173091       2.0745447000
      0.0000000000       0.0000000000       4.1490894000
K In
1 3
direct
   0.0000000000000000    0.0000000000000000    0.0000000000000000 K
   0.7500000000000000    0.7500000000000000    0.7500000000000000 In
   0.2500000000000000    0.2500000000000000    0.2500000000000000 In
   0.5000000000000000    0.5000000000000000    0.5000000000000000 In
