K1 In3
1.0
      4.3118601876       0.0000000000       2.4894536400
      1.4372867292       4.0652607709       2.4894536400
      0.0000000000       0.0000000000       4.9789072800
K In
1 3
direct
   0.0000000000000000    0.0000000000000000    0.0000000000000000 K
   0.7500000000000000    0.7500000000000000    0.7500000000000000 In
   0.2500000000000000    0.2500000000000000    0.2500000000000000 In
   0.5000000000000000    0.5000000000000000    0.5000000000000000 In
