K1 In3
1.0
      4.0723123994       0.0000000000       2.3511506600
      1.3574374665       3.8394129503       2.3511506600
      0.0000000000       0.0000000000       4.7023013200
K In
1 3
direct
   0.0000000000000000    0.0000000000000000    0.0000000000000000 K
   0.7500000000000000    0.7500000000000000    0.7500000000000000 In
   0.2500000000000000    0.2500000000000000    0.2500000000000000 In
   0.5000000000000000    0.5000000000000000    0.5000000000000000 In
