K1 In3
1.0
      3.8327646112       0.0000000000       2.2128476800
      1.2775882037       3.6135651297       2.2128476800
      0.0000000000       0.0000000000       4.4256953600
K In
1 3
direct
   0.0000000000000000    0.0000000000000000    0.0000000000000000 K
   0.7500000000000000    0.7500000000000000    0.7500000000000000 In
   0.2500000000000000    0.2500000000000000    0.2500000000000000 In
   0.5000000000000000    0.5000000000000000    0.5000000000000000 In
