K1 In3
1.0
      4.5514079758       0.0000000000       2.6277566200
      1.5171359919       4.2911085915       2.6277566200
      0.0000000000       0.0000000000       5.2555132400
K In
1 3
direct
   0.0000000000000000    0.0000000000000000    0.0000000000000000 K
   0.7500000000000000    0.7500000000000000    0.7500000000000000 In
   0.2500000000000000    0.2500000000000000    0.2500000000000000 In
   0.5000000000000000    0.5000000000000000    0.5000000000000000 In
