Cu2 S1
1.0
      2.6450107307       0.0000000000       1.5807571818
     -1.9414479734       2.3684623612      -0.3406476832
      0.0000000000       0.0000000000       3.0813755100
Cu S
2 1
direct
   0.6133990000000000    0.2906880000000000    0.0959130000000000 Cu
   0.6133990000000000    0.7093120000000001    0.6772890000000000 Cu
   0.9416020000000001    0.0000000000000000    0.0583980000000000 S
