Cu2 S1
1.0
      2.9976788282       0.0000000000       1.7915248061
     -2.2003077032       2.6842573426      -0.3860673743
      0.0000000000       0.0000000000       3.4922255780
Cu S
2 1
direct
   0.6133990000000000    0.2906880000000000    0.0959130000000000 Cu
   0.6133990000000000    0.7093120000000001    0.6772890000000000 Cu
   0.9416020000000001    0.0000000000000000    0.0583980000000000 S
