Cu2 S1
1.0
      3.3503469256       0.0000000000       2.0022924303
     -2.4591674329       3.0000523241      -0.4314870654
      0.0000000000       0.0000000000       3.9030756460
Cu S
2 1
direct
   0.6133990000000000    0.2906880000000000    0.0959130000000000 Cu
   0.6133990000000000    0.7093120000000001    0.6772890000000000 Cu
   0.9416020000000001    0.0000000000000000    0.0583980000000000 S
