Cu2 S1
1.0
      2.8213447794       0.0000000000       1.6861409940
     -2.0708778383       2.5263598519      -0.3633575288
      0.0000000000       0.0000000000       3.2868005440
Cu S
2 1
direct
   0.6133990000000000    0.2906880000000000    0.0959130000000000 Cu
   0.6133990000000000    0.7093120000000001    0.6772890000000000 Cu
   0.9416020000000001    0.0000000000000000    0.0583980000000000 S
