Cu2 S1
1.0
      3.1740128769       0.0000000000       1.8969086182
     -2.3297375681       2.8421548334      -0.4087772199
      0.0000000000       0.0000000000       3.6976506120
Cu S
2 1
direct
   0.6133990000000000    0.2906880000000000    0.0959130000000000 Cu
   0.6133990000000000    0.7093120000000001    0.6772890000000000 Cu
   0.9416020000000001    0.0000000000000000    0.0583980000000000 S
