Th4 Zn2
1.0
      3.9490907744       0.0000000000       2.0374111448
      1.9775196556       4.3173693514       1.0250880030
      0.0000000000       0.0000000000       4.8580940800
Th Zn
4 2
direct
   0.6580213200000000    0.1840446700000000    0.5001216200000000 Th
   0.8419786800000000    0.4998783800000000    0.8159553300000000 Th
   0.3419786800000000    0.8159553300000000    0.4998783800000000 Th
   0.1580213200000000    0.5001216200000000    0.1840446700000000 Th
   0.7500000000000000    0.9999318600000000    0.0000681400000000 Zn
   0.2500000000000000    0.0000681400000000    0.9999318600000000 Zn
