Li1 Mg3
1.0
      3.9053451756       0.0000000000      -3.2120114864
     -0.8712001295       3.8069320029      -3.2120114864
      0.0000000000       0.0000000000       5.0565540370
Li Mg
1 3
direct
   0.0000000000000000    0.0000000000000000    0.0000000000000000 Li
   0.5000000000000000    0.5000000000000000    0.0000000000000000 Mg
   0.2500000000000000    0.7500000000000000    0.5000000000000000 Mg
   0.7500000000000000    0.2500000000000000    0.5000000000000000 Mg
