Li1 Mg3
1.0
      3.6998006927       0.0000000000      -3.0429582502
     -0.8253474911       3.6065671607      -3.0429582502
      0.0000000000       0.0000000000       4.7904196140
Li Mg
1 3
direct
   0.0000000000000000    0.0000000000000000    0.0000000000000000 Li
   0.5000000000000000    0.5000000000000000    0.0000000000000000 Mg
   0.2500000000000000    0.7500000000000000    0.5000000000000000 Mg
   0.7500000000000000    0.2500000000000000    0.5000000000000000 Mg
