Li3 Yb1
1.0
      4.1269610822       0.0000000000       2.3827020918
      1.3756536941       3.8909362226       2.3827020918
      0.0000000000       0.0000000000       4.7654041835
Li Yb
3 1
direct
   0.2500000000000000    0.2500000000000000    0.2500000000000000 Li
   0.7500000000000000    0.7500000000000000    0.7500000000000000 Li
   0.5000000000000000    0.5000000000000000    0.5000000000000000 Li
   0.0000000000000000    0.0000000000000000    0.0000000000000000 Yb
