Li3 Yb1
1.0
      3.6925441262       0.0000000000       2.1318913453
      1.2308480421       3.4813639886       2.1318913453
      0.0000000000       0.0000000000       4.2637826905
Li Yb
3 1
direct
   0.2500000000000000    0.2500000000000000    0.2500000000000000 Li
   0.7500000000000000    0.7500000000000000    0.7500000000000000 Li
   0.5000000000000000    0.5000000000000000    0.5000000000000000 Li
   0.0000000000000000    0.0000000000000000    0.0000000000000000 Yb
