K3 Cr1
1.0
      4.6215234613       0.0000000000      -3.7706867534
     -1.0414950448       4.5026400228      -3.7706867534
      0.0000000000       0.0000000000       5.9646087630
K Cr
3 1
direct
   0.5000000000000000    0.5000000000000000    0.0000000000000000 K
   0.2500000000000000    0.7500000000000000    0.5000000000000000 K
   0.7500000000000000    0.2500000000000000    0.5000000000000000 K
   0.0000000000000000    0.0000000000000000    0.0000000000000000 Cr
