K3 Cr1
1.0
      4.8933777825       0.0000000000      -3.9924918566
     -1.1027594592       4.7675012006      -3.9924918566
      0.0000000000       0.0000000000       6.3154681020
K Cr
3 1
direct
   0.5000000000000000    0.5000000000000000    0.0000000000000000 K
   0.2500000000000000    0.7500000000000000    0.5000000000000000 K
   0.7500000000000000    0.2500000000000000    0.5000000000000000 K
   0.0000000000000000    0.0000000000000000    0.0000000000000000 Cr
