K3 Cr1
1.0
      5.1652321038       0.0000000000      -4.2142969597
     -1.1640238736       5.0323623784      -4.2142969597
      0.0000000000       0.0000000000       6.6663274410
K Cr
3 1
direct
   0.5000000000000000    0.5000000000000000    0.0000000000000000 K
   0.2500000000000000    0.7500000000000000    0.5000000000000000 K
   0.7500000000000000    0.2500000000000000    0.5000000000000000 K
   0.0000000000000000    0.0000000000000000    0.0000000000000000 Cr
