K3 Cr1
1.0
      4.3496691400       0.0000000000      -3.5488816503
     -0.9802306304       4.2377788450      -3.5488816503
      0.0000000000       0.0000000000       5.6137494240
K Cr
3 1
direct
   0.5000000000000000    0.5000000000000000    0.0000000000000000 K
   0.2500000000000000    0.7500000000000000    0.5000000000000000 K
   0.7500000000000000    0.2500000000000000    0.5000000000000000 K
   0.0000000000000000    0.0000000000000000    0.0000000000000000 Cr
