K3 Cr1
1.0
      4.0778148188       0.0000000000      -3.3270765471
     -0.9189662160       3.9729176672      -3.3270765471
      0.0000000000       0.0000000000       5.2628900850
K Cr
3 1
direct
   0.5000000000000000    0.5000000000000000    0.0000000000000000 K
   0.2500000000000000    0.7500000000000000    0.5000000000000000 K
   0.7500000000000000    0.2500000000000000    0.5000000000000000 K
   0.0000000000000000    0.0000000000000000    0.0000000000000000 Cr
