Li2 S8
1.0
     11.1111755351       0.0000000000      -0.4532931972
     -0.0203591509      11.5226467355      -1.1435393132
      0.0000000000       0.0000000000      12.0431960190
Li S
2 8
direct
   0.3525040000000000    0.6827740000000000    0.5238100000000000 Li
   0.4782950000000000    0.5177600000000000    0.4664860000000000 Li
   0.5363460000000000    0.7020950000000000    0.4924400000000000 S
   0.5699010000000000    0.6346590000000000    0.6249580000000000 S
   0.7046870000000000    0.5424170000000000    0.6053240000000000 S
   0.6609860000000000    0.4125260000000000    0.5054340000000000 S
   0.5788170000000000    0.3097490000000000    0.5882930000000000 S
   0.4163100000000000    0.3042620000000000    0.5437760000000000 S
   0.3321170000000000    0.4304470000000000    0.6097590000000001 S
   0.2834340000000000    0.5133110000000000    0.4897210000000000 S
