Li2 Ag2
1.0
      3.1804751372       0.0000000000      -1.9391605291
     -1.1823213185       2.9525477809      -1.9391605291
      0.0000000000       0.0000000000       3.5777772160
Li Ag
2 2
direct
   0.7500000000000000    0.2500000000000000    0.5000000000000000 Li
   0.5000000000000000    0.5000000000000000    0.0000000000000000 Li
   0.2500000000000000    0.7500000000000000    0.5000000000000000 Ag
   0.0000000000000000    0.0000000000000000    0.0000000000000000 Ag
