Cu1 Pd1
1.0
      2.3251271233       0.0000000000       3.3155862210
      1.0467016250       2.0762061188       3.3155862210
      0.0000000000       0.0000000000       4.0496081580
Cu Pd
1 1
direct
   0.0000000000000000    0.0000000000000000    0.0000000000000000 Cu
   0.5000000000000000    0.5000000000000000    0.5000000000000000 Pd
