Cu1 Pd1
1.0
      2.4543008524       0.0000000000       3.4997854555
      1.1048517153       2.1915509032       3.4997854555
      0.0000000000       0.0000000000       4.2745863890
Cu Pd
1 1
direct
   0.0000000000000000    0.0000000000000000    0.0000000000000000 Cu
   0.5000000000000000    0.5000000000000000    0.5000000000000000 Pd
