Cu1 Pd1
1.0
      2.1959533942       0.0000000000       3.1313869865
      0.9885515347       1.9608613344       3.1313869865
      0.0000000000       0.0000000000       3.8246299270
Cu Pd
1 1
direct
   0.0000000000000000    0.0000000000000000    0.0000000000000000 Cu
   0.5000000000000000    0.5000000000000000    0.5000000000000000 Pd
