Cu1 Pd1
1.0
      1.9376059361       0.0000000000       2.7629885175
      0.8722513542       1.7301717657       2.7629885175
      0.0000000000       0.0000000000       3.3746734650
Cu Pd
1 1
direct
   0.0000000000000000    0.0000000000000000    0.0000000000000000 Cu
   0.5000000000000000    0.5000000000000000    0.5000000000000000 Pd
