Cu1 Pd1
1.0
      2.0667796652       0.0000000000       2.9471877520
      0.9304014445       1.8455165500       2.9471877520
      0.0000000000       0.0000000000       3.5996516960
Cu Pd
1 1
direct
   0.0000000000000000    0.0000000000000000    0.0000000000000000 Cu
   0.5000000000000000    0.5000000000000000    0.5000000000000000 Pd
