Mn1 Zn13
1.0
      3.8010146666       0.0000000000       0.6040737578
      0.5032148668       4.5558824528       1.7343672923
      0.0000000000       0.0000000000       4.9007473275
Mn Zn
1 13
direct
   0.5000000000000000    0.0000000000000000    0.0000000000000000 Mn
   0.1967343200000000    0.9964000000000000    0.3572750300000000 Zn
   0.8032656800000000    0.0036000000000000    0.6427249700000000 Zn
   0.8032656800000000    0.6427249700000000    0.0036000000000000 Zn
   0.1967343200000000    0.3572750300000000    0.9964000000000000 Zn
   0.3241260000000000    0.2218924300000000    0.6195032200000000 Zn
   0.6758740000000000    0.7781075700000000    0.3804967800000000 Zn
   0.6758740000000000    0.3804967800000000    0.7781075700000000 Zn
   0.3241260000000000    0.6195032200000000    0.2218924300000000 Zn
   0.0000000000000000    0.0000000000000000    0.0000000000000000 Zn
   0.0671261800000000    0.6124995300000000    0.6124995300000000 Zn
   0.9328738200000000    0.3875004700000000    0.3875004700000000 Zn
   0.3630837100000000    0.7786834100000000    0.7786834100000000 Zn
   0.6369162900000001    0.2213165900000000    0.2213165900000000 Zn
