K4 O2
1.0
      4.1841634875       0.0000000000       1.4940643192
     -0.5362056073       4.1496635571       1.4940643192
      0.0000000000       0.0000000000       6.4518056005
K O
4 2
direct
   0.0760710000000000    0.3209850000000000    0.8515390000000000 K
   0.6790150000000000    0.9239290000000000    0.6484610000000000 K
   0.9239290000000000    0.6790150000000000    0.1484610000000000 K
   0.3209850000000000    0.0760710000000000    0.3515390000000000 K
   0.1293690000000000    0.8706310000000000    0.7500000000000000 O
   0.8706310000000000    0.1293690000000000    0.2500000000000000 O
