K4 O2
1.0
      3.6919089596       0.0000000000       1.3182920464
     -0.4731225947       3.6614678445       1.3182920464
      0.0000000000       0.0000000000       5.6927696475
K O
4 2
direct
   0.0760710000000000    0.3209850000000000    0.8515390000000000 K
   0.6790150000000000    0.9239290000000000    0.6484610000000000 K
   0.9239290000000000    0.6790150000000000    0.1484610000000000 K
   0.3209850000000000    0.0760710000000000    0.3515390000000000 K
   0.1293690000000000    0.8706310000000000    0.7500000000000000 O
   0.8706310000000000    0.1293690000000000    0.2500000000000000 O
