Li2 Fe2
1.0
      1.7821170000       0.0000000000       0.0000000000
     -0.8910584996       3.3955814993       0.0000000000
      0.0000000000       0.0000000000       3.4201072500
Li Fe
2 2
direct
   0.0000000000000000    0.0000000000000000    0.0000000000000000 Li
   0.0000000000000000    0.0000000000000000    0.5000000000000000 Li
   0.2566430000000000    0.5132850000000000    0.2500000000000000 Fe
   0.7433570000000000    0.4867140000000000    0.7500000000000000 Fe
