Na1 Cu1
1.0
      2.1274458450       0.0000000000       0.0000000000
     -1.0637232704       1.8424219461       0.0000000000
      0.0000000000       0.0000000000       3.7202820000
Na Cu
1 1
direct
   0.6666666666666666    0.3333333333333333    0.0000000000000000 Na
   0.0000000000000000    0.0000000000000000    0.5000000000000000 Cu
