Na1 Cu1
1.0
      2.5529350140       0.0000000000       0.0000000000
     -1.2764679245       2.2109063353       0.0000000000
      0.0000000000       0.0000000000       4.4643384000
Na Cu
1 1
direct
   0.6666666666666666    0.3333333333333333    0.0000000000000000 Na
   0.0000000000000000    0.0000000000000000    0.5000000000000000 Cu
