Li1 Tb3
1.0
      3.9142888000       0.0000000000       0.0000000000
     -0.0000000000       3.9142888000       0.0000000000
      0.0000000000       0.0000000000       3.9142888000
Li Tb
1 3
direct
   0.0000000000000000    0.0000000000000000    0.0000000000000000 Li
   0.0000000000000000    0.5000000000000000    0.5000000000000000 Tb
   0.5000000000000000    0.0000000000000000    0.5000000000000000 Tb
   0.5000000000000000    0.5000000000000000    0.0000000000000000 Tb
