Li2 Cd2
1.0
      3.2650917623       0.0000000000       1.8851014164
      1.0883647480       3.0783578468       1.8851014222
      0.0000000000       0.0000000000       3.7702036720
Li Cd
2 2
direct
   0.6250000000000000    0.6250000000000000    0.6250000000000000 Li
   0.3750000000000000    0.3750000000000000    0.3750000000000000 Li
   0.1250000000000000    0.1250000000000000    0.1250000000000000 Cd
   0.8750000000000000    0.8750000000000000    0.8750000000000000 Cd
