Li2 Cd2
1.0
      3.6732282325       0.0000000000       2.1207390934
      1.2244103415       3.4631525777       2.1207391000
      0.0000000000       0.0000000000       4.2414791310
Li Cd
2 2
direct
   0.6250000000000000    0.6250000000000000    0.6250000000000000 Li
   0.3750000000000000    0.3750000000000000    0.3750000000000000 Li
   0.1250000000000000    0.1250000000000000    0.1250000000000000 Cd
   0.8750000000000000    0.8750000000000000    0.8750000000000000 Cd
