Li2 Cd2
1.0
      3.0610235271       0.0000000000       1.7672825779
      1.0203419512       2.8859604814       1.7672825833
      0.0000000000       0.0000000000       3.5345659425
Li Cd
2 2
direct
   0.6250000000000000    0.6250000000000000    0.6250000000000000 Li
   0.3750000000000000    0.3750000000000000    0.3750000000000000 Li
   0.1250000000000000    0.1250000000000000    0.1250000000000000 Cd
   0.8750000000000000    0.8750000000000000    0.8750000000000000 Cd
