Li3 Ga2
1.0
      2.9427028938       0.0000000000       2.5593387741
      1.1659727520       2.7018529636       2.5593385123
      0.0000000000       0.0000000000       3.8999635125
Li Ga
3 2
direct
   0.5957440000000001    0.5957440000000001    0.5957440000000001 Li
   0.4042560000000000    0.4042560000000000    0.4042560000000000 Li
   0.0000000000000000    0.0000000000000000    0.0000000000000000 Li
   0.2000460000000000    0.2000460000000000    0.2000460000000000 Ga
   0.7999540000000001    0.7999540000000001    0.7999540000000001 Ga
