Li3 Ga2
1.0
      3.5312434726       0.0000000000       3.0712065289
      1.3991673025       3.2422235563       3.0712062148
      0.0000000000       0.0000000000       4.6799562150
Li Ga
3 2
direct
   0.5957440000000001    0.5957440000000001    0.5957440000000001 Li
   0.4042560000000000    0.4042560000000000    0.4042560000000000 Li
   0.0000000000000000    0.0000000000000000    0.0000000000000000 Li
   0.2000460000000000    0.2000460000000000    0.2000460000000000 Ga
   0.7999540000000001    0.7999540000000001    0.7999540000000001 Ga
