Li3 Ga2
1.0
      3.3350632797       0.0000000000       2.9005839439
      1.3214357857       3.0621000254       2.9005836473
      0.0000000000       0.0000000000       4.4199586475
Li Ga
3 2
direct
   0.5957440000000001    0.5957440000000001    0.5957440000000001 Li
   0.4042560000000000    0.4042560000000000    0.4042560000000000 Li
   0.0000000000000000    0.0000000000000000    0.0000000000000000 Li
   0.2000460000000000    0.2000460000000000    0.2000460000000000 Ga
   0.7999540000000001    0.7999540000000001    0.7999540000000001 Ga
