Li3 Ga2
1.0
      3.7274236655       0.0000000000       3.2418291138
      1.4768988193       3.4223470872       3.2418287822
      0.0000000000       0.0000000000       4.9399537825
Li Ga
3 2
direct
   0.5957440000000001    0.5957440000000001    0.5957440000000001 Li
   0.4042560000000000    0.4042560000000000    0.4042560000000000 Li
   0.0000000000000000    0.0000000000000000    0.0000000000000000 Li
   0.2000460000000000    0.2000460000000000    0.2000460000000000 Ga
   0.7999540000000001    0.7999540000000001    0.7999540000000001 Ga
