Cu4 S2
1.0
      3.1459698675       0.0000000000       0.0629698568
     -1.5196496740       2.7545945756       0.0629698568
      0.0000000000       0.0000000000       5.7390142720
Cu S
4 2
direct
   0.0000000000000000    0.5000000000000000    0.5000000000000000 Cu
   0.5000000000000000    0.0000000000000000    0.0000000000000000 Cu
   0.0176942300000000    0.9823057700000000    0.2500000000000000 Cu
   0.9823057700000000    0.0176942300000000    0.7500000000000000 Cu
   0.3667042500000000    0.6332957500000000    0.2500000000000000 S
   0.6332957500000000    0.3667042500000000    0.7500000000000000 S
