Cu4 S2
1.0
      3.5392161010       0.0000000000       0.0708410889
     -1.7096058833       3.0989188975       0.0708410889
      0.0000000000       0.0000000000       6.4563910560
Cu S
4 2
direct
   0.0000000000000000    0.5000000000000000    0.5000000000000000 Cu
   0.5000000000000000    0.0000000000000000    0.0000000000000000 Cu
   0.0176942300000000    0.9823057700000000    0.2500000000000000 Cu
   0.9823057700000000    0.0176942300000000    0.7500000000000000 Cu
   0.3667042500000000    0.6332957500000000    0.2500000000000000 S
   0.6332957500000000    0.3667042500000000    0.7500000000000000 S
