Cu4 S2
1.0
      3.3425929843       0.0000000000       0.0669054729
     -1.6146277787       2.9267567365       0.0669054729
      0.0000000000       0.0000000000       6.0977026640
Cu S
4 2
direct
   0.0000000000000000    0.5000000000000000    0.5000000000000000 Cu
   0.5000000000000000    0.0000000000000000    0.0000000000000000 Cu
   0.0176942300000000    0.9823057700000000    0.2500000000000000 Cu
   0.9823057700000000    0.0176942300000000    0.7500000000000000 Cu
   0.3667042500000000    0.6332957500000000    0.2500000000000000 S
   0.6332957500000000    0.3667042500000000    0.7500000000000000 S
