Sc1 Zn1
1.0
      3.1673177555       0.0000000000       0.0000000000
     -0.0000000000       3.1673177555       0.0000000000
      0.0000000000       0.0000000000       3.1673177555
Sc Zn
1 1
direct
   0.0000000000000000    0.0000000000000000    0.0000000000000000 Sc
   0.5000000000000000    0.5000000000000000    0.5000000000000000 Zn
