Sc1 Zn1
1.0
      2.6672149520       0.0000000000       0.0000000000
     -0.0000000000       2.6672149520       0.0000000000
      0.0000000000       0.0000000000       2.6672149520
Sc Zn
1 1
direct
   0.0000000000000000    0.0000000000000000    0.0000000000000000 Sc
   0.5000000000000000    0.5000000000000000    0.5000000000000000 Zn
