Sc1 Zn1
1.0
      2.8339158865       0.0000000000       0.0000000000
     -0.0000000000       2.8339158865       0.0000000000
      0.0000000000       0.0000000000       2.8339158865
Sc Zn
1 1
direct
   0.0000000000000000    0.0000000000000000    0.0000000000000000 Sc
   0.5000000000000000    0.5000000000000000    0.5000000000000000 Zn
