Lu6 Cu23
1.0
      6.9429560137       0.0000000000       4.0085175235
      2.3143186712       6.5458817051       4.0085175235
      0.0000000000       0.0000000000       8.0170350470
Lu Cu
6 23
direct
   0.7119090000000000    0.7119090000000000    0.2880910000000000 Lu
   0.2880910000000000    0.7119090000000000    0.2880910000000000 Lu
   0.7119090000000000    0.2880910000000000    0.2880910000000000 Lu
   0.2880910000000000    0.2880910000000000    0.7119090000000000 Lu
   0.7119090000000000    0.2880910000000000    0.7119090000000000 Lu
   0.2880910000000000    0.7119090000000000    0.7119090000000000 Lu
   0.0000000000000000    0.0000000000000000    0.0000000000000000 Cu
   0.0000000000000000    0.0000000000000000    0.5000000000000000 Cu
   0.5000000000000000    0.0000000000000000    0.5000000000000000 Cu
   0.0000000000000000    0.5000000000000000    0.5000000000000000 Cu
   0.5000000000000000    0.5000000000000000    0.0000000000000000 Cu
   0.0000000000000000    0.5000000000000000    0.0000000000000000 Cu
   0.5000000000000000    0.0000000000000000    0.0000000000000000 Cu
   0.8786940000000000    0.8786940000000000    0.3639180000000000 Cu
   0.8786940000000000    0.3639180000000000    0.8786940000000000 Cu
   0.3639180000000000    0.8786940000000000    0.8786940000000000 Cu
   0.8786940000000000    0.8786940000000000    0.8786940000000000 Cu
   0.1213060000000000    0.1213060000000000    0.6360820000000000 Cu
   0.1213060000000000    0.6360820000000000    0.1213060000000000 Cu
   0.6360820000000000    0.1213060000000000    0.1213060000000000 Cu
   0.1213060000000000    0.1213060000000000    0.1213060000000000 Cu
   0.6721120000000000    0.6721120000000000    0.9836640000000000 Cu
   0.6721120000000000    0.9836640000000000    0.6721120000000000 Cu
   0.9836640000000000    0.6721120000000000    0.6721120000000000 Cu
   0.6721120000000000    0.6721120000000000    0.6721120000000000 Cu
   0.3278880000000000    0.3278880000000000    0.0163360000000000 Cu
   0.3278880000000000    0.0163360000000000    0.3278880000000000 Cu
   0.0163360000000000    0.3278880000000000    0.3278880000000000 Cu
   0.3278880000000000    0.3278880000000000    0.3278880000000000 Cu
