Li3 Pr1
1.0
      4.0548316792       0.0000000000       2.3410581615
      1.3516105597       3.8229319692       2.3410581615
      0.0000000000       0.0000000000       4.6821163230
Li Pr
3 1
direct
   0.2500000000000000    0.2500000000000000    0.2500000000000000 Li
   0.7500000000000000    0.7500000000000000    0.7500000000000000 Li
   0.5000000000000000    0.5000000000000000    0.5000000000000000 Li
   0.0000000000000000    0.0000000000000000    0.0000000000000000 Pr
