Li3 Pr1
1.0
      3.3790263993       0.0000000000       1.9508818013
      1.1263421331       3.1857766410       1.9508818013
      0.0000000000       0.0000000000       3.9017636025
Li Pr
3 1
direct
   0.2500000000000000    0.2500000000000000    0.2500000000000000 Li
   0.7500000000000000    0.7500000000000000    0.7500000000000000 Li
   0.5000000000000000    0.5000000000000000    0.5000000000000000 Li
   0.0000000000000000    0.0000000000000000    0.0000000000000000 Pr
