Li3 Pr1
1.0
      3.6042948259       0.0000000000       2.0809405880
      1.2014316086       3.3981617504       2.0809405880
      0.0000000000       0.0000000000       4.1618811760
Li Pr
3 1
direct
   0.2500000000000000    0.2500000000000000    0.2500000000000000 Li
   0.7500000000000000    0.7500000000000000    0.7500000000000000 Li
   0.5000000000000000    0.5000000000000000    0.5000000000000000 Li
   0.0000000000000000    0.0000000000000000    0.0000000000000000 Pr
