Li3 Pr1
1.0
      4.2801001058       0.0000000000       2.4711169483
      1.4267000353       4.0353170786       2.4711169483
      0.0000000000       0.0000000000       4.9422338965
Li Pr
3 1
direct
   0.2500000000000000    0.2500000000000000    0.2500000000000000 Li
   0.7500000000000000    0.7500000000000000    0.7500000000000000 Li
   0.5000000000000000    0.5000000000000000    0.5000000000000000 Li
   0.0000000000000000    0.0000000000000000    0.0000000000000000 Pr
