Cu3 Cl1
1.0
      3.6569499500       0.0000000000       0.0000000000
     -0.0000000000       3.6569499500       0.0000000000
      0.0000000000       0.0000000000       3.6569499500
Cu Cl
3 1
direct
   0.0000000000000000    0.5000000000000000    0.5000000000000000 Cu
   0.5000000000000000    0.0000000000000000    0.5000000000000000 Cu
   0.5000000000000000    0.5000000000000000    0.0000000000000000 Cu
   0.0000000000000000    0.0000000000000000    0.0000000000000000 Cl
