Cu1 Br2
1.0
      3.6232590000       0.0000000000       0.0000000000
     -0.0000000000       3.6232590000       0.0000000000
      0.0000000000       0.0000000000       3.1578015000
Cu Br
1 2
direct
   0.0000000000000000    0.0000000000000000    0.0000000000000000 Cu
   0.0000000000000000    0.5000000000000000    0.0000000000000000 Br
   0.5000000000000000    0.0000000000000000    0.0000000000000000 Br
