Nb1 Zn3
1.0
      3.3234859495       0.0000000000       0.0000000000
     -0.0000000000       3.3234859495       0.0000000000
      0.0000000000       0.0000000000       3.3234859495
Nb Zn
1 3
direct
   0.0000000000000000    0.0000000000000000    0.0000000000000000 Nb
   0.5000000000000000    0.0000000000000000    0.5000000000000000 Zn
   0.0000000000000000    0.5000000000000000    0.5000000000000000 Zn
   0.5000000000000000    0.5000000000000000    0.0000000000000000 Zn
