K3 Ta1
1.0
      4.4751427419       0.0000000000      -3.7269791034
     -0.9825126758       4.3659559552      -3.7269791034
      0.0000000000       0.0000000000       5.8238540330
K Ta
3 1
direct
   0.7500000000000000    0.2500000000000000    0.5000000000000000 K
   0.2500000000000000    0.7500000000000000    0.5000000000000000 K
   0.5000000000000000    0.5000000000000000    0.0000000000000000 K
   0.0000000000000000    0.0000000000000000    0.0000000000000000 Ta
