K3 Ta1
1.0
      4.2118990512       0.0000000000      -3.5077450385
     -0.9247178125       4.1091350166      -3.5077450385
      0.0000000000       0.0000000000       5.4812743840
K Ta
3 1
direct
   0.7500000000000000    0.2500000000000000    0.5000000000000000 K
   0.2500000000000000    0.7500000000000000    0.5000000000000000 K
   0.5000000000000000    0.5000000000000000    0.0000000000000000 K
   0.0000000000000000    0.0000000000000000    0.0000000000000000 Ta
