K3 Ta1
1.0
      4.7383864326       0.0000000000      -3.9462131683
     -1.0403075390       4.6227768937      -3.9462131683
      0.0000000000       0.0000000000       6.1664336820
K Ta
3 1
direct
   0.7500000000000000    0.2500000000000000    0.5000000000000000 K
   0.2500000000000000    0.7500000000000000    0.5000000000000000 K
   0.5000000000000000    0.5000000000000000    0.0000000000000000 K
   0.0000000000000000    0.0000000000000000    0.0000000000000000 Ta
