K3 Ta1
1.0
      3.9486553605       0.0000000000      -3.2885109736
     -0.8669229492       3.8523140781      -3.2885109736
      0.0000000000       0.0000000000       5.1386947350
K Ta
3 1
direct
   0.7500000000000000    0.2500000000000000    0.5000000000000000 K
   0.2500000000000000    0.7500000000000000    0.5000000000000000 K
   0.5000000000000000    0.5000000000000000    0.0000000000000000 K
   0.0000000000000000    0.0000000000000000    0.0000000000000000 Ta
