K3 Ta1
1.0
      5.0016301233       0.0000000000      -4.1654472332
     -1.0981024023       4.8795978322      -4.1654472332
      0.0000000000       0.0000000000       6.5090133310
K Ta
3 1
direct
   0.7500000000000000    0.2500000000000000    0.5000000000000000 K
   0.2500000000000000    0.7500000000000000    0.5000000000000000 K
   0.5000000000000000    0.5000000000000000    0.0000000000000000 K
   0.0000000000000000    0.0000000000000000    0.0000000000000000 Ta
