Cu3 W1
1.0
      2.8981363261       0.0000000000       1.6732397880
      0.9660454420       2.7323891319       1.6732397880
      0.0000000000       0.0000000000       3.3464795760
Cu W
3 1
direct
   0.2500000000000000    0.2500000000000000    0.2500000000000000 Cu
   0.7500000000000000    0.7500000000000000    0.7500000000000000 Cu
   0.5000000000000000    0.5000000000000000    0.5000000000000000 Cu
   0.0000000000000000    0.0000000000000000    0.0000000000000000 W
