Cu3 W1
1.0
      3.4415368872       0.0000000000       1.9869722483
      1.1471789624       3.2447120942       1.9869722483
      0.0000000000       0.0000000000       3.9739444965
Cu W
3 1
direct
   0.2500000000000000    0.2500000000000000    0.2500000000000000 Cu
   0.7500000000000000    0.7500000000000000    0.7500000000000000 Cu
   0.5000000000000000    0.5000000000000000    0.5000000000000000 Cu
   0.0000000000000000    0.0000000000000000    0.0000000000000000 W
