Cu3 W1
1.0
      3.2604033668       0.0000000000       1.8823947615
      1.0868011223       3.0739377734       1.8823947615
      0.0000000000       0.0000000000       3.7647895230
Cu W
3 1
direct
   0.2500000000000000    0.2500000000000000    0.2500000000000000 Cu
   0.7500000000000000    0.7500000000000000    0.7500000000000000 Cu
   0.5000000000000000    0.5000000000000000    0.5000000000000000 Cu
   0.0000000000000000    0.0000000000000000    0.0000000000000000 W
