Cu3 W1
1.0
      2.7170028057       0.0000000000       1.5686623013
      0.9056676019       2.5616148112       1.5686623013
      0.0000000000       0.0000000000       3.1373246025
Cu W
3 1
direct
   0.2500000000000000    0.2500000000000000    0.2500000000000000 Cu
   0.7500000000000000    0.7500000000000000    0.7500000000000000 Cu
   0.5000000000000000    0.5000000000000000    0.5000000000000000 Cu
   0.0000000000000000    0.0000000000000000    0.0000000000000000 W
