Cu3 W1
1.0
      3.0792698464       0.0000000000       1.7778172748
      1.0264232821       2.9031634527       1.7778172748
      0.0000000000       0.0000000000       3.5556345495
Cu W
3 1
direct
   0.2500000000000000    0.2500000000000000    0.2500000000000000 Cu
   0.7500000000000000    0.7500000000000000    0.7500000000000000 Cu
   0.5000000000000000    0.5000000000000000    0.5000000000000000 Cu
   0.0000000000000000    0.0000000000000000    0.0000000000000000 W
