K6 Y2
1.0
      7.7229975780       0.0000000000       0.0000000000
     -3.8614991625       6.6883118802       0.0000000000
      0.0000000000       0.0000000000       6.3862353000
K Y
6 2
direct
   0.1719940000000000    0.3439870000000000    0.2500000000000000 K
   0.6560130000000000    0.8280060000000000    0.2500000000000000 K
   0.1719940000000000    0.8280060000000000    0.2500000000000000 K
   0.8280060000000000    0.6560130000000000    0.7500000000000000 K
   0.3439870000000000    0.1719940000000000    0.7500000000000000 K
   0.8280060000000000    0.1719940000000000    0.7500000000000000 K
   0.3333333333333333    0.6666666666666666    0.7500000000000000 Y
   0.6666666666666666    0.3333333333333333    0.2500000000000000 Y
