Li4 S4
1.0
      3.6374492188       0.0000000000      -5.0301813197
     -0.3810947854       3.6174305224      -5.0301813197
      0.0000000000       0.0000000000       6.2075567600
Li S
4 4
direct
   0.7233050000000000    0.7233050000000000    0.0000000000000000 Li
   0.2766950000000000    0.2766950000000000    0.0000000000000000 Li
   0.0000000000000000    0.5000000000000000    0.5000000000000000 Li
   0.5000000000000000    0.0000000000000000    0.5000000000000000 Li
   0.0365280000000000    0.7215760000000000    0.0000000000000000 S
   0.7215760000000000    0.0365280000000000    0.0000000000000000 S
   0.9634720000000000    0.9634720000000000    0.6850480000000000 S
   0.2784240000000000    0.2784240000000000    0.3149520000000000 S
