K2 C1
1.0
      4.1852486354       0.0000000000       2.4163544263
      1.3950828785       3.9458902547       2.4163544263
      0.0000000000       0.0000000000       4.8327088525
K C
2 1
direct
   0.2500000000000000    0.2500000000000000    0.2500000000000000 K
   0.7500000000000000    0.7500000000000000    0.7500000000000000 K
   0.0000000000000000    0.0000000000000000    0.0000000000000000 C
