K2 C1
1.0
      3.9649723914       0.0000000000       2.2891778775
      1.3216574638       3.7382118202       2.2891778775
      0.0000000000       0.0000000000       4.5783557550
K C
2 1
direct
   0.2500000000000000    0.2500000000000000    0.2500000000000000 K
   0.7500000000000000    0.7500000000000000    0.7500000000000000 K
   0.0000000000000000    0.0000000000000000    0.0000000000000000 C
