K2 C1
1.0
      3.5244199035       0.0000000000       2.0348247800
      1.1748066345       3.3228549513       2.0348247800
      0.0000000000       0.0000000000       4.0696495600
K C
2 1
direct
   0.2500000000000000    0.2500000000000000    0.2500000000000000 K
   0.7500000000000000    0.7500000000000000    0.7500000000000000 K
   0.0000000000000000    0.0000000000000000    0.0000000000000000 C
