K2 C1
1.0
      3.3041436595       0.0000000000       1.9076482313
      1.1013812198       3.1151765169       1.9076482313
      0.0000000000       0.0000000000       3.8152964625
K C
2 1
direct
   0.2500000000000000    0.2500000000000000    0.2500000000000000 K
   0.7500000000000000    0.7500000000000000    0.7500000000000000 K
   0.0000000000000000    0.0000000000000000    0.0000000000000000 C
