K2 C1
1.0
      3.7446961474       0.0000000000       2.1620013288
      1.2482320491       3.5305333858       2.1620013288
      0.0000000000       0.0000000000       4.3240026575
K C
2 1
direct
   0.2500000000000000    0.2500000000000000    0.2500000000000000 K
   0.7500000000000000    0.7500000000000000    0.7500000000000000 K
   0.0000000000000000    0.0000000000000000    0.0000000000000000 C
