Li2 Ag2
1.0
      3.7768142255       0.0000000000      -2.3027531283
     -1.4040065657       3.5061504898      -2.3027531283
      0.0000000000       0.0000000000       4.2486104440
Li Ag
2 2
direct
   0.7500000000000000    0.2500000000000000    0.5000000000000000 Li
   0.5000000000000000    0.5000000000000000    0.0000000000000000 Li
   0.2500000000000000    0.7500000000000000    0.5000000000000000 Ag
   0.0000000000000000    0.0000000000000000    0.0000000000000000 Ag
