Li2 Ag2
1.0
      3.5780345294       0.0000000000      -2.1815555953
     -1.3301114833       3.3216162535      -2.1815555953
      0.0000000000       0.0000000000       4.0249993680
Li Ag
2 2
direct
   0.7500000000000000    0.2500000000000000    0.5000000000000000 Li
   0.5000000000000000    0.5000000000000000    0.0000000000000000 Li
   0.2500000000000000    0.7500000000000000    0.5000000000000000 Ag
   0.0000000000000000    0.0000000000000000    0.0000000000000000 Ag
