Li2 Ag2
1.0
      2.9816954412       0.0000000000      -1.8179629960
     -1.1084262361       2.7680135446      -1.8179629960
      0.0000000000       0.0000000000       3.3541661400
Li Ag
2 2
direct
   0.7500000000000000    0.2500000000000000    0.5000000000000000 Li
   0.5000000000000000    0.5000000000000000    0.0000000000000000 Li
   0.2500000000000000    0.7500000000000000    0.5000000000000000 Ag
   0.0000000000000000    0.0000000000000000    0.0000000000000000 Ag
