K3 Li1
1.0
      4.7480702902       0.0000000000      -4.3601141134
     -0.9166178567       4.6587533939      -4.3601141134
      0.0000000000       0.0000000000       6.4462986715
K Li
3 1
direct
   0.7500000000000000    0.2500000000000000    0.5000000000000000 K
   0.2500000000000000    0.7500000000000000    0.5000000000000000 K
   0.5000000000000000    0.5000000000000000    0.0000000000000000 K
   0.0000000000000000    0.0000000000000000    0.0000000000000000 Li
