K3 Li1
1.0
      5.0273685426       0.0000000000      -4.6165914141
     -0.9705365542       4.9327977112      -4.6165914141
      0.0000000000       0.0000000000       6.8254927110
K Li
3 1
direct
   0.7500000000000000    0.2500000000000000    0.5000000000000000 K
   0.2500000000000000    0.7500000000000000    0.5000000000000000 K
   0.5000000000000000    0.5000000000000000    0.0000000000000000 K
   0.0000000000000000    0.0000000000000000    0.0000000000000000 Li
