K3 Li1
1.0
      5.3066667949       0.0000000000      -4.8730687149
     -1.0244552516       5.2068420285      -4.8730687149
      0.0000000000       0.0000000000       7.2046867505
K Li
3 1
direct
   0.7500000000000000    0.2500000000000000    0.5000000000000000 K
   0.2500000000000000    0.7500000000000000    0.5000000000000000 K
   0.5000000000000000    0.5000000000000000    0.0000000000000000 K
   0.0000000000000000    0.0000000000000000    0.0000000000000000 Li
