Li6 Ni2
1.0
      5.1647932180       0.0000000000       0.0000000000
     -2.5823970243       4.4728418923       0.0000000000
      0.0000000000       0.0000000000       4.2420549500
Li Ni
6 2
direct
   0.1745940000000000    0.3491880000000000    0.2500000000000000 Li
   0.6508119999999999    0.8254060000000000    0.2500000000000000 Li
   0.1745940000000000    0.8254060000000000    0.2500000000000000 Li
   0.8254060000000000    0.6508119999999999    0.7500000000000000 Li
   0.3491880000000000    0.1745940000000000    0.7500000000000000 Li
   0.8254060000000000    0.1745940000000000    0.7500000000000000 Li
   0.3333333333333333    0.6666666666666666    0.7500000000000000 Ni
   0.6666666666666666    0.3333333333333333    0.2500000000000000 Ni
