Mn1 Al1
1.0
      2.2109235000       0.0000000000       0.0000000000
     -0.0000000000       2.2109235000       0.0000000000
      0.0000000000       0.0000000000       2.2109235000
Mn Al
1 1
direct
   0.5000000000000000    0.5000000000000000    0.5000000000000000 Mn
   0.0000000000000000    0.0000000000000000    0.0000000000000000 Al
