Rb3 Li1
1.0
      4.4860065121       0.0000000000      -3.9346868716
     -0.9207771118       4.3904924481      -3.9346868716
      0.0000000000       0.0000000000       5.9670776100
Rb Li
3 1
direct
   0.7500000000000000    0.2500000000000000    0.5000000000000000 Rb
   0.2500000000000000    0.7500000000000000    0.5000000000000000 Rb
   0.5000000000000000    0.5000000000000000    0.0000000000000000 Rb
   0.0000000000000000    0.0000000000000000    0.0000000000000000 Li
