Rb3 Li1
1.0
      5.0841407137       0.0000000000      -4.4593117878
     -1.0435473933       4.9758914412      -4.4593117878
      0.0000000000       0.0000000000       6.7626879580
Rb Li
3 1
direct
   0.7500000000000000    0.2500000000000000    0.5000000000000000 Rb
   0.2500000000000000    0.7500000000000000    0.5000000000000000 Rb
   0.5000000000000000    0.5000000000000000    0.0000000000000000 Rb
   0.0000000000000000    0.0000000000000000    0.0000000000000000 Li
