Rb3 Li1
1.0
      4.7850736129       0.0000000000      -4.1969993297
     -0.9821622525       4.6831919446      -4.1969993297
      0.0000000000       0.0000000000       6.3648827840
Rb Li
3 1
direct
   0.7500000000000000    0.2500000000000000    0.5000000000000000 Rb
   0.2500000000000000    0.7500000000000000    0.5000000000000000 Rb
   0.5000000000000000    0.5000000000000000    0.0000000000000000 Rb
   0.0000000000000000    0.0000000000000000    0.0000000000000000 Li
