Li1 Cl1
1.0
      2.9577787039       0.0000000000       1.7076735813
      0.9859262342       2.7886202497       1.7076735806
      0.0000000000       0.0000000000       3.4153490660
Li Cl
1 1
direct
   0.0000000000000000    0.0000000000000000    0.0000000000000000 Li
   0.5000000000000000    0.5000000000000000    0.5000000000000000 Cl
