Li1 Cl1
1.0
      2.4907610138       0.0000000000       1.4380409106
      0.8302536709       2.3483117892       1.4380409100
      0.0000000000       0.0000000000       2.8760834240
Li Cl
1 1
direct
   0.0000000000000000    0.0000000000000000    0.0000000000000000 Li
   0.5000000000000000    0.5000000000000000    0.5000000000000000 Cl
