K3 Tc1
1.0
      4.9570972216       0.0000000000      -4.1469850912
     -1.0820646536       4.8375560927      -4.1469850912
      0.0000000000       0.0000000000       6.4629945235
K Tc
3 1
direct
   0.7500000000000000    0.2500000000000000    0.5000000000000000 K
   0.2500000000000000    0.7500000000000000    0.5000000000000000 K
   0.5000000000000000    0.5000000000000000    0.0000000000000000 K
   0.0000000000000000    0.0000000000000000    0.0000000000000000 Tc
