K3 Tc1
1.0
      3.9134978065       0.0000000000      -3.2739355983
     -0.8542615686       3.8191232311      -3.2739355983
      0.0000000000       0.0000000000       5.1023640975
K Tc
3 1
direct
   0.7500000000000000    0.2500000000000000    0.5000000000000000 K
   0.2500000000000000    0.7500000000000000    0.5000000000000000 K
   0.5000000000000000    0.5000000000000000    0.0000000000000000 K
   0.0000000000000000    0.0000000000000000    0.0000000000000000 Tc
