K3 Tc1
1.0
      4.1743976603       0.0000000000      -3.4921979715
     -0.9112123399       4.0737314465      -3.4921979715
      0.0000000000       0.0000000000       5.4425217040
K Tc
3 1
direct
   0.7500000000000000    0.2500000000000000    0.5000000000000000 K
   0.2500000000000000    0.7500000000000000    0.5000000000000000 K
   0.5000000000000000    0.5000000000000000    0.0000000000000000 K
   0.0000000000000000    0.0000000000000000    0.0000000000000000 Tc
