K3 Tc1
1.0
      4.4352975141       0.0000000000      -3.7104603447
     -0.9681631111       4.3283396619      -3.7104603447
      0.0000000000       0.0000000000       5.7826793105
K Tc
3 1
direct
   0.7500000000000000    0.2500000000000000    0.5000000000000000 K
   0.2500000000000000    0.7500000000000000    0.5000000000000000 K
   0.5000000000000000    0.5000000000000000    0.0000000000000000 K
   0.0000000000000000    0.0000000000000000    0.0000000000000000 Tc
