K3 Tc1
1.0
      4.6961973678       0.0000000000      -3.9287227180
     -1.0251138823       4.5829478773      -3.9287227180
      0.0000000000       0.0000000000       6.1228369170
K Tc
3 1
direct
   0.7500000000000000    0.2500000000000000    0.5000000000000000 K
   0.2500000000000000    0.7500000000000000    0.5000000000000000 K
   0.5000000000000000    0.5000000000000000    0.0000000000000000 K
   0.0000000000000000    0.0000000000000000    0.0000000000000000 Tc
