Li3 Al1
1.0
      2.8911093600       0.0000000000      -2.9538336635
     -0.4811273599       2.8507945901      -2.9538336635
      0.0000000000       0.0000000000       4.1332368240
Li Al
3 1
direct
   0.7499990000000000    0.2500000000000000    0.4999980000000000 Li
   0.2500000000000000    0.7499990000000000    0.4999980000000000 Li
   0.5000000000000000    0.5000000000000000    0.0000000000000000 Li
   0.0000000000000000    0.0000000000000000    0.0000000000000000 Al
