Li3 Al1
1.0
      2.7104150250       0.0000000000      -2.7692190596
     -0.4510568999       2.6726199282      -2.7692190596
      0.0000000000       0.0000000000       3.8749095225
Li Al
3 1
direct
   0.7499990000000000    0.2500000000000000    0.4999980000000000 Li
   0.2500000000000000    0.7499990000000000    0.4999980000000000 Li
   0.5000000000000000    0.5000000000000000    0.0000000000000000 Li
   0.0000000000000000    0.0000000000000000    0.0000000000000000 Al
