K1 Li3
1.0
      3.6935454720       0.0000000000       2.1324694725
      1.2311818240       3.4823080665       2.1324694725
      0.0000000000       0.0000000000       4.2649389450
K Li
1 3
direct
   0.0000000000000000    0.0000000000000000    0.0000000000000000 K
   0.2500000000000000    0.2500000000000000    0.2500000000000000 Li
   0.7500000000000000    0.7500000000000000    0.7500000000000000 Li
   0.5000000000000000    0.5000000000000000    0.5000000000000000 Li
