K1 Li3
1.0
      3.9397818368       0.0000000000       2.2746341040
      1.3132606123       3.7144619376       2.2746341040
      0.0000000000       0.0000000000       4.5492682080
K Li
1 3
direct
   0.0000000000000000    0.0000000000000000    0.0000000000000000 K
   0.2500000000000000    0.2500000000000000    0.2500000000000000 Li
   0.7500000000000000    0.7500000000000000    0.7500000000000000 Li
   0.5000000000000000    0.5000000000000000    0.5000000000000000 Li
