K1 Li3
1.0
      4.6784909311       0.0000000000       2.7011279985
      1.5594969770       4.4109235508       2.7011279985
      0.0000000000       0.0000000000       5.4022559970
K Li
1 3
direct
   0.0000000000000000    0.0000000000000000    0.0000000000000000 K
   0.2500000000000000    0.2500000000000000    0.2500000000000000 Li
   0.7500000000000000    0.7500000000000000    0.7500000000000000 Li
   0.5000000000000000    0.5000000000000000    0.5000000000000000 Li
