Sr6 Li2
1.0
      6.8960499235       0.0000000000       0.0000000000
     -3.4480248877       5.9721544622       0.0000000000
      0.0000000000       0.0000000000       5.6074474500
Sr Li
6 2
direct
   0.1697590000000000    0.3395180000000000    0.2500000000000000 Sr
   0.6604820000000000    0.8302410000000000    0.2500000000000000 Sr
   0.1697590000000000    0.8302410000000000    0.2500000000000000 Sr
   0.8302410000000000    0.6604820000000000    0.7500000000000000 Sr
   0.3395180000000000    0.1697590000000000    0.7500000000000000 Sr
   0.8302410000000000    0.1697590000000000    0.7500000000000000 Sr
   0.3333333333333333    0.6666666666666666    0.7500000000000000 Li
   0.6666666666666666    0.3333333333333333    0.2500000000000000 Li
