Cu9 S5
1.0
      3.4614860511       0.0000000000      14.1883859574
      1.7057283383       3.0120385984      14.1883859574
      0.0000000000       0.0000000000      14.6045256660
Cu S
9 5
direct
   0.5000000000000000    0.5000000000000000    0.5000000000000000 Cu
   0.0520410000000000    0.0520410000000000    0.0520410000000000 Cu
   0.9479590000000000    0.9479590000000000    0.9479590000000000 Cu
   0.1370500000000000    0.1370500000000000    0.1370500000000000 Cu
   0.8629500000000000    0.8629500000000000    0.8629500000000000 Cu
   0.2481100000000000    0.2481100000000000    0.2481100000000000 Cu
   0.7518899999999999    0.7518899999999999    0.7518899999999999 Cu
   0.3517100000000000    0.3517100000000000    0.3517100000000000 Cu
   0.6482900000000000    0.6482900000000000    0.6482900000000000 Cu
   0.0000000000000000    0.0000000000000000    0.0000000000000000 S
   0.2011680000000000    0.2011680000000000    0.2011680000000000 S
   0.7988320000000000    0.7988320000000000    0.7988320000000000 S
   0.4001310000000000    0.4001310000000000    0.4001310000000000 S
   0.5998690000000000    0.5998690000000000    0.5998690000000000 S
