Cu9 S5
1.0
      2.8845717092       0.0000000000      11.8236549645
      1.4214402819       2.5100321653      11.8236549645
      0.0000000000       0.0000000000      12.1704380550
Cu S
9 5
direct
   0.5000000000000000    0.5000000000000000    0.5000000000000000 Cu
   0.0520410000000000    0.0520410000000000    0.0520410000000000 Cu
   0.9479590000000000    0.9479590000000000    0.9479590000000000 Cu
   0.1370500000000000    0.1370500000000000    0.1370500000000000 Cu
   0.8629500000000000    0.8629500000000000    0.8629500000000000 Cu
   0.2481100000000000    0.2481100000000000    0.2481100000000000 Cu
   0.7518899999999999    0.7518899999999999    0.7518899999999999 Cu
   0.3517100000000000    0.3517100000000000    0.3517100000000000 Cu
   0.6482900000000000    0.6482900000000000    0.6482900000000000 Cu
   0.0000000000000000    0.0000000000000000    0.0000000000000000 S
   0.2011680000000000    0.2011680000000000    0.2011680000000000 S
   0.7988320000000000    0.7988320000000000    0.7988320000000000 S
   0.4001310000000000    0.4001310000000000    0.4001310000000000 S
   0.5998690000000000    0.5998690000000000    0.5998690000000000 S
