K6 Ti2
1.0
      6.2860793775       0.0000000000       0.0000000000
     -3.1430390655       5.4439047910       0.0000000000
      0.0000000000       0.0000000000       5.0963827500
K Ti
6 2
direct
   0.1756040000000000    0.3512090000000000    0.2500000000000000 K
   0.6487910000000000    0.8243960000000000    0.2500000000000000 K
   0.1756040000000000    0.8243960000000000    0.2500000000000000 K
   0.8243960000000000    0.6487910000000000    0.7500000000000000 K
   0.3512090000000000    0.1756040000000000    0.7500000000000000 K
   0.8243960000000000    0.1756040000000000    0.7500000000000000 K
   0.3333333333333333    0.6666666666666666    0.7500000000000000 Ti
   0.6666666666666666    0.3333333333333333    0.2500000000000000 Ti
