Li1 Ge3
1.0
      3.3808715724       0.0000000000      -3.2630661465
     -0.6096293835       3.3254540448      -3.2630661465
      0.0000000000       0.0000000000       4.6987118730
Li Ge
1 3
direct
   0.0000000000000000    0.0000000000000000    0.0000000000000000 Li
   0.7500000000000000    0.2500000000000000    0.5000000000000000 Ge
   0.2500000000000000    0.7500000000000000    0.5000000000000000 Ge
   0.5000000000000000    0.5000000000000000    0.0000000000000000 Ge
