Li1 Ge3
1.0
      3.0052191755       0.0000000000      -2.9005032413
     -0.5418927853       2.9559591509      -2.9005032413
      0.0000000000       0.0000000000       4.1766327760
Li Ge
1 3
direct
   0.0000000000000000    0.0000000000000000    0.0000000000000000 Li
   0.7500000000000000    0.2500000000000000    0.5000000000000000 Ge
   0.2500000000000000    0.7500000000000000    0.5000000000000000 Ge
   0.5000000000000000    0.5000000000000000    0.0000000000000000 Ge
