Li1 Ge3
1.0
      3.5686977709       0.0000000000      -3.4443475991
     -0.6434976826       3.5102014917      -3.4443475991
      0.0000000000       0.0000000000       4.9597514215
Li Ge
1 3
direct
   0.0000000000000000    0.0000000000000000    0.0000000000000000 Li
   0.7500000000000000    0.2500000000000000    0.5000000000000000 Ge
   0.2500000000000000    0.7500000000000000    0.5000000000000000 Ge
   0.5000000000000000    0.5000000000000000    0.0000000000000000 Ge
