Mn1 Co1
1.0
      2.7109200000       0.0000000000       0.0000000000
     -0.0000000000       2.7109200000       0.0000000000
      0.0000000000       0.0000000000       2.7109200000
Mn Co
1 1
direct
   0.0000000000000000    0.0000000000000000    0.0000000000000000 Mn
   0.5000000000000000    0.5000000000000000    0.5000000000000000 Co
