Li3 Au1
1.0
      3.6146947111       0.0000000000       2.0869448005
      1.2048982320       3.4079683603       2.0869447981
      0.0000000000       0.0000000000       4.1738905595
Li Au
3 1
direct
   0.7500000000000000    0.7500000000000000    0.7500000000000000 Li
   0.5000000000000000    0.5000000000000000    0.5000000000000000 Li
   0.2500000000000000    0.2500000000000000    0.2500000000000000 Li
   0.0000000000000000    0.0000000000000000    0.0000000000000000 Au
