Li3 Au1
1.0
      2.8537063509       0.0000000000       1.6475880004
      0.9512354463       2.6905013371       1.6475879985
      0.0000000000       0.0000000000       3.2951767575
Li Au
3 1
direct
   0.7500000000000000    0.7500000000000000    0.7500000000000000 Li
   0.5000000000000000    0.5000000000000000    0.5000000000000000 Li
   0.2500000000000000    0.2500000000000000    0.2500000000000000 Li
   0.0000000000000000    0.0000000000000000    0.0000000000000000 Au
