Li3 Au1
1.0
      3.0439534409       0.0000000000       1.7574272004
      1.0146511428       2.8698680929       1.7574271984
      0.0000000000       0.0000000000       3.5148552080
Li Au
3 1
direct
   0.7500000000000000    0.7500000000000000    0.7500000000000000 Li
   0.5000000000000000    0.5000000000000000    0.5000000000000000 Li
   0.2500000000000000    0.2500000000000000    0.2500000000000000 Li
   0.0000000000000000    0.0000000000000000    0.0000000000000000 Au
