Li4 B12
1.0
      3.1057927725       0.0000000000       0.0000000000
     -0.0000000000       4.4669635125       0.0000000000
      0.0000000000       0.0000000000       4.4669635125
Li B
4 12
direct
   0.5000000000000000    0.1794430600000000    0.6794430600000000 Li
   0.5000000000000000    0.8205569400000000    0.3205569400000000 Li
   0.5000000000000000    0.3205569400000000    0.1794430600000000 Li
   0.5000000000000000    0.6794430600000000    0.8205569400000000 Li
   0.7060691000000000    0.5000000000000000    0.5000000000000000 B
   0.7060691000000000    0.0000000000000000    0.0000000000000000 B
   0.2939309000000000    0.5000000000000000    0.5000000000000000 B
   0.2939309000000000    0.0000000000000000    0.0000000000000000 B
   0.0000000000000000    0.6646888000000000    0.6320092600000000 B
   0.0000000000000000    0.3353112000000000    0.3679907400000000 B
   0.0000000000000000    0.8353112000000000    0.1320092600000000 B
   0.0000000000000000    0.1646888000000000    0.8679907400000000 B
   0.0000000000000000    0.6320092600000000    0.3353112000000000 B
   0.0000000000000000    0.3679907400000000    0.6646888000000000 B
   0.0000000000000000    0.1320092600000000    0.1646888000000000 B
   0.0000000000000000    0.8679907400000000    0.8353112000000000 B
