Mn2 O4
1.0
      2.1166223297       0.0000000000       6.6925653412
      1.0330935549       1.8473786275       6.6925653412
      0.0000000000       0.0000000000       7.0192956825
Mn O
2 4
direct
   0.5000000000000000    0.5000000000000000    0.5000000000000000 Mn
   0.0000000000000000    0.0000000000000000    0.0000000000000000 Mn
   0.6322766000000000    0.6322766000000000    0.6322766000000000 O
   0.2010494400000000    0.2010494400000000    0.2010494400000000 O
   0.7989505600000000    0.7989505600000000    0.7989505600000000 O
   0.3677234000000000    0.3677234000000000    0.3677234000000000 O
