Mn2 O4
1.0
      2.2577304850       0.0000000000       7.1387363640
      1.1019664585       1.9705372027       7.1387363640
      0.0000000000       0.0000000000       7.4872487280
Mn O
2 4
direct
   0.5000000000000000    0.5000000000000000    0.5000000000000000 Mn
   0.0000000000000000    0.0000000000000000    0.0000000000000000 Mn
   0.6322766000000000    0.6322766000000000    0.6322766000000000 O
   0.2010494400000000    0.2010494400000000    0.2010494400000000 O
   0.7989505600000000    0.7989505600000000    0.7989505600000000 O
   0.3677234000000000    0.3677234000000000    0.3677234000000000 O
