Mn2 O4
1.0
      2.3988386403       0.0000000000       7.5849073867
      1.1708393622       2.0936957778       7.5849073867
      0.0000000000       0.0000000000       7.9552017735
Mn O
2 4
direct
   0.5000000000000000    0.5000000000000000    0.5000000000000000 Mn
   0.0000000000000000    0.0000000000000000    0.0000000000000000 Mn
   0.6322766000000000    0.6322766000000000    0.6322766000000000 O
   0.2010494400000000    0.2010494400000000    0.2010494400000000 O
   0.7989505600000000    0.7989505600000000    0.7989505600000000 O
   0.3677234000000000    0.3677234000000000    0.3677234000000000 O
