Mn2 O4
1.0
      2.6810549509       0.0000000000       8.4772494322
      1.3085851695       2.3400129282       8.4772494322
      0.0000000000       0.0000000000       8.8911078645
Mn O
2 4
direct
   0.5000000000000000    0.5000000000000000    0.5000000000000000 Mn
   0.0000000000000000    0.0000000000000000    0.0000000000000000 Mn
   0.6322766000000000    0.6322766000000000    0.6322766000000000 O
   0.2010494400000000    0.2010494400000000    0.2010494400000000 O
   0.7989505600000000    0.7989505600000000    0.7989505600000000 O
   0.3677234000000000    0.3677234000000000    0.3677234000000000 O
