Mn2 O4
1.0
      2.5399467956       0.0000000000       8.0310784095
      1.2397122658       2.2168543530       8.0310784095
      0.0000000000       0.0000000000       8.4231548190
Mn O
2 4
direct
   0.5000000000000000    0.5000000000000000    0.5000000000000000 Mn
   0.0000000000000000    0.0000000000000000    0.0000000000000000 Mn
   0.6322766000000000    0.6322766000000000    0.6322766000000000 O
   0.2010494400000000    0.2010494400000000    0.2010494400000000 O
   0.7989505600000000    0.7989505600000000    0.7989505600000000 O
   0.3677234000000000    0.3677234000000000    0.3677234000000000 O
