Cu4 S2
1.0
      4.0364951375       0.0000000000       0.0000000000
     -2.0182478061       3.4957071943       0.0000000000
      0.0000000000       0.0000000000       5.0968060500
Cu S
4 2
direct
   0.0000000000000000    0.0000000000000000    0.2500000000000000 Cu
   0.6666666666666666    0.3333333333333333    0.2500000000000000 Cu
   0.3333333333333333    0.6666666666666666    0.7500000000000000 Cu
   0.0000000000000000    0.0000000000000000    0.7500000000000000 Cu
   0.3333333333333333    0.6666666666666666    0.2500000000000000 S
   0.6666666666666666    0.3333333333333333    0.7500000000000000 S
