Cu4 S2
1.0
      3.1867066875       0.0000000000       0.0000000000
     -1.5933535311       2.7597688376       0.0000000000
      0.0000000000       0.0000000000       4.0237942500
Cu S
4 2
direct
   0.0000000000000000    0.0000000000000000    0.2500000000000000 Cu
   0.6666666666666666    0.3333333333333333    0.2500000000000000 Cu
   0.3333333333333333    0.6666666666666666    0.7500000000000000 Cu
   0.0000000000000000    0.0000000000000000    0.7500000000000000 Cu
   0.3333333333333333    0.6666666666666666    0.2500000000000000 S
   0.6666666666666666    0.3333333333333333    0.7500000000000000 S
