Cu1 O2
1.0
      2.0580973500       0.0000000000       0.0000000000
     -0.0000000000       5.4790592000       0.0000000000
      0.0000000000       0.0000000000       6.0069865500
Cu O
1 2
direct
   0.0000000000000000    0.5000000000000000    0.0000000000000000 Cu
   0.0000000000000000    0.5000000000000000    0.4124350000000000 O
   0.0000000000000000    0.5000000000000000    0.5875650000000000 O
