K2 Tl6
1.0
      7.3603564105       0.0000000000       0.0000000000
     -3.6801777059       6.3742543411       0.0000000000
      0.0000000000       0.0000000000       4.9860075405
K Tl
2 6
direct
   0.6666666666666666    0.3333333333333333    0.2500000000000000 K
   0.3333333333333333    0.6666666666666666    0.7500000000000000 K
   0.8533948000000000    0.1466032000000000    0.7500000000000000 Tl
   0.2932084100000000    0.1466032000000000    0.7500000000000000 Tl
   0.8533948000000000    0.7067905900000000    0.7500000000000000 Tl
   0.1466042000000000    0.8533968000000000    0.2500000000000000 Tl
   0.7067905900000000    0.8533958000000000    0.2500000000000000 Tl
   0.1466042000000000    0.2932094100000000    0.2500000000000000 Tl
