K2 Tl6
1.0
      6.1981948720       0.0000000000       0.0000000000
     -3.0990970155       5.3677931293       0.0000000000
      0.0000000000       0.0000000000       4.1987431920
K Tl
2 6
direct
   0.6666666666666666    0.3333333333333333    0.2500000000000000 K
   0.3333333333333333    0.6666666666666666    0.7500000000000000 K
   0.8533948000000000    0.1466032000000000    0.7500000000000000 Tl
   0.2932084100000000    0.1466032000000000    0.7500000000000000 Tl
   0.8533948000000000    0.7067905900000000    0.7500000000000000 Tl
   0.1466042000000000    0.8533968000000000    0.2500000000000000 Tl
   0.7067905900000000    0.8533958000000000    0.2500000000000000 Tl
   0.1466042000000000    0.2932094100000000    0.2500000000000000 Tl
