Pr3 Cu1
1.0
      3.2684727000       0.0000000000      -3.1984535943
     -0.5781248471       3.2169372782      -3.1984535943
      0.0000000000       0.0000000000       4.5730754625
Pr Cu
3 1
direct
   0.7500000000000000    0.2500000000000000    0.5000000000000000 Pr
   0.2500000000000000    0.7500000000000000    0.5000000000000000 Pr
   0.5000000000000000    0.5000000000000000    0.0000000000000000 Pr
   0.0000000000000000    0.0000000000000000    0.0000000000000000 Cu
