Pr3 Cu1
1.0
      4.1400654200       0.0000000000      -4.0513745528
     -0.7322914729       4.0747872191      -4.0513745528
      0.0000000000       0.0000000000       5.7925622525
Pr Cu
3 1
direct
   0.7500000000000000    0.2500000000000000    0.5000000000000000 Pr
   0.2500000000000000    0.7500000000000000    0.5000000000000000 Pr
   0.5000000000000000    0.5000000000000000    0.0000000000000000 Pr
   0.0000000000000000    0.0000000000000000    0.0000000000000000 Cu
