Pr3 Cu1
1.0
      3.9221672400       0.0000000000      -3.8381443132
     -0.6937498165       3.8603247339      -3.8381443132
      0.0000000000       0.0000000000       5.4876905550
Pr Cu
3 1
direct
   0.7500000000000000    0.2500000000000000    0.5000000000000000 Pr
   0.2500000000000000    0.7500000000000000    0.5000000000000000 Pr
   0.5000000000000000    0.5000000000000000    0.0000000000000000 Pr
   0.0000000000000000    0.0000000000000000    0.0000000000000000 Cu
