Pr3 Cu1
1.0
      3.7042690600       0.0000000000      -3.6249140736
     -0.6552081600       3.6458622486      -3.6249140736
      0.0000000000       0.0000000000       5.1828188575
Pr Cu
3 1
direct
   0.7500000000000000    0.2500000000000000    0.5000000000000000 Pr
   0.2500000000000000    0.7500000000000000    0.5000000000000000 Pr
   0.5000000000000000    0.5000000000000000    0.0000000000000000 Pr
   0.0000000000000000    0.0000000000000000    0.0000000000000000 Cu
