Pr3 Cu1
1.0
      3.4863708800       0.0000000000      -3.4116838339
     -0.6166665035       3.4313997634      -3.4116838339
      0.0000000000       0.0000000000       4.8779471600
Pr Cu
3 1
direct
   0.7500000000000000    0.2500000000000000    0.5000000000000000 Pr
   0.2500000000000000    0.7500000000000000    0.5000000000000000 Pr
   0.5000000000000000    0.5000000000000000    0.0000000000000000 Pr
   0.0000000000000000    0.0000000000000000    0.0000000000000000 Cu
