Li1 I1
1.0
      2.7411422527       0.0000000000       1.5825995026
      0.9137146005       2.5843731264       1.5825994964
      0.0000000000       0.0000000000       3.1651982175
Li I
1 1
direct
   0.0000000000000000    0.0000000000000000    0.0000000000000000 Li
   0.5000000000000000    0.5000000000000000    0.5000000000000000 I
