Li1 Tl3
1.0
      4.0538074920       0.0000000000      -3.7928843556
     -0.7629331983       3.9813676189      -3.7928843556
      0.0000000000       0.0000000000       5.5515157315
Li Tl
1 3
direct
   0.0000000000000000    0.0000000000000000    0.0000000000000000 Li
   0.7500000000000000    0.2500000000000000    0.5000000000000000 Tl
   0.2500000000000000    0.7500000000000000    0.5000000000000000 Tl
   0.5000000000000000    0.5000000000000000    0.0000000000000000 Tl
