Li1 Tl3
1.0
      3.8404492029       0.0000000000      -3.5932588632
     -0.7227788195       3.7718219547      -3.5932588632
      0.0000000000       0.0000000000       5.2593306930
Li Tl
1 3
direct
   0.0000000000000000    0.0000000000000000    0.0000000000000000 Li
   0.7500000000000000    0.2500000000000000    0.5000000000000000 Tl
   0.2500000000000000    0.7500000000000000    0.5000000000000000 Tl
   0.5000000000000000    0.5000000000000000    0.0000000000000000 Tl
