Li1 Tl3
1.0
      3.6270909139       0.0000000000      -3.3936333708
     -0.6826244406       3.5622762906      -3.3936333708
      0.0000000000       0.0000000000       4.9671456545
Li Tl
1 3
direct
   0.0000000000000000    0.0000000000000000    0.0000000000000000 Li
   0.7500000000000000    0.2500000000000000    0.5000000000000000 Tl
   0.2500000000000000    0.7500000000000000    0.5000000000000000 Tl
   0.5000000000000000    0.5000000000000000    0.0000000000000000 Tl
