Li1 Ca3
1.0
      4.3083346411       0.0000000000      -4.1741049412
     -0.7727576453       4.2384658783      -4.1741049412
      0.0000000000       0.0000000000       5.9987414880
Li Ca
1 3
direct
   0.0000000000000000    0.0000000000000000    0.0000000000000000 Li
   0.7500000000000000    0.2500000000000000    0.5000000000000000 Ca
   0.2500000000000000    0.7500000000000000    0.5000000000000000 Ca
   0.5000000000000000    0.5000000000000000    0.0000000000000000 Ca
