Li1 Ca3
1.0
      4.5476865656       0.0000000000      -4.4059996602
     -0.8156886256       4.4739362048      -4.4059996602
      0.0000000000       0.0000000000       6.3320049040
Li Ca
1 3
direct
   0.0000000000000000    0.0000000000000000    0.0000000000000000 Li
   0.7500000000000000    0.2500000000000000    0.5000000000000000 Ca
   0.2500000000000000    0.7500000000000000    0.5000000000000000 Ca
   0.5000000000000000    0.5000000000000000    0.0000000000000000 Ca
