Li1 Ca3
1.0
      3.8296307921       0.0000000000      -3.7103155033
     -0.6868956848       3.7675252251      -3.7103155033
      0.0000000000       0.0000000000       5.3322146560
Li Ca
1 3
direct
   0.0000000000000000    0.0000000000000000    0.0000000000000000 Li
   0.7500000000000000    0.2500000000000000    0.5000000000000000 Ca
   0.2500000000000000    0.7500000000000000    0.5000000000000000 Ca
   0.5000000000000000    0.5000000000000000    0.0000000000000000 Ca
