Li1 Ca3
1.0
      4.0689827166       0.0000000000      -3.9422102222
     -0.7298266651       4.0029955517      -3.9422102222
      0.0000000000       0.0000000000       5.6654780720
Li Ca
1 3
direct
   0.0000000000000000    0.0000000000000000    0.0000000000000000 Li
   0.7500000000000000    0.2500000000000000    0.5000000000000000 Ca
   0.2500000000000000    0.7500000000000000    0.5000000000000000 Ca
   0.5000000000000000    0.5000000000000000    0.0000000000000000 Ca
