K1 Yb3
1.0
      3.7689177999       0.0000000000      -3.3693474396
     -0.7542832058       3.6926681720      -3.3693474396
      0.0000000000       0.0000000000       5.0554172480
K Yb
1 3
direct
   0.0000000000000000    0.0000000000000000    0.0000000000000000 K
   0.7500000000000000    0.2500000000000000    0.5000000000000000 Yb
   0.2500000000000000    0.7500000000000000    0.5000000000000000 Yb
   0.5000000000000000    0.5000000000000000    0.0000000000000000 Yb
