K1 Yb3
1.0
      4.0044751624       0.0000000000      -3.5799316546
     -0.8014259061       3.9234599327      -3.5799316546
      0.0000000000       0.0000000000       5.3713808260
K Yb
1 3
direct
   0.0000000000000000    0.0000000000000000    0.0000000000000000 K
   0.7500000000000000    0.2500000000000000    0.5000000000000000 Yb
   0.2500000000000000    0.7500000000000000    0.5000000000000000 Yb
   0.5000000000000000    0.5000000000000000    0.0000000000000000 Yb
