K1 Yb3
1.0
      4.2400325249       0.0000000000      -3.7905158695
     -0.8485686065       4.1542516935      -3.7905158695
      0.0000000000       0.0000000000       5.6873444040
K Yb
1 3
direct
   0.0000000000000000    0.0000000000000000    0.0000000000000000 K
   0.7500000000000000    0.2500000000000000    0.5000000000000000 Yb
   0.2500000000000000    0.7500000000000000    0.5000000000000000 Yb
   0.5000000000000000    0.5000000000000000    0.0000000000000000 Yb
