K1 Yb3
1.0
      4.4755898874       0.0000000000      -4.0011000845
     -0.8957113068       4.3850434542      -4.0011000845
      0.0000000000       0.0000000000       6.0033079820
K Yb
1 3
direct
   0.0000000000000000    0.0000000000000000    0.0000000000000000 K
   0.7500000000000000    0.2500000000000000    0.5000000000000000 Yb
   0.2500000000000000    0.7500000000000000    0.5000000000000000 Yb
   0.5000000000000000    0.5000000000000000    0.0000000000000000 Yb
