K1 Yb3
1.0
      3.5333604374       0.0000000000      -3.1587632246
     -0.7071405054       3.4618764112      -3.1587632246
      0.0000000000       0.0000000000       4.7394536700
K Yb
1 3
direct
   0.0000000000000000    0.0000000000000000    0.0000000000000000 K
   0.7500000000000000    0.2500000000000000    0.5000000000000000 Yb
   0.2500000000000000    0.7500000000000000    0.5000000000000000 Yb
   0.5000000000000000    0.5000000000000000    0.0000000000000000 Yb
