Zn3 Te3
1.0
      3.2421095400       0.0000000000       0.0000000000
     -1.6210547263       2.8077497250       0.0000000000
      0.0000000000       0.0000000000       7.9331259825
Zn Te
3 3
direct
   0.6666666666666666    0.6673303700000000    0.6933931700000000 Zn
   0.0007272300000000    0.3333968700000000    0.3600591700000000 Zn
   0.3326696300000000    0.9992727700000000    0.0267261700000000 Zn
   0.6674454300000000    0.6668712400000000    0.4432738300000000 Te
   0.3331287600000000    0.0005731900000000    0.7766068300000000 Te
   0.9994268100000000    0.3325545700000000    0.1099408300000000 Te
