K16 Ge16
1.0
      7.1097613243       0.0000000000      -3.7256817514
     -1.9523446540       6.8364505732      -3.7256817514
      0.0000000000       0.0000000000       8.6466597075
K Ge
16 16
direct
   0.2500000000000000    0.3911573800000000    0.0000000000000000 K
   0.2500000000000000    0.8911573800000000    0.0000000000000000 K
   0.1088426200000000    0.7500000000000000    0.5000000000000000 K
   0.8911573800000000    0.2500000000000000    0.5000000000000000 K
   0.7500000000000000    0.6088426200000000    0.0000000000000000 K
   0.7500000000000000    0.1088426200000000    0.0000000000000000 K
   0.6088426200000000    0.7500000000000000    0.5000000000000000 K
   0.3911573800000000    0.2500000000000000    0.5000000000000000 K
   0.7526632100000000    0.2473367900000000    0.7500000000000000 K
   0.4973367900000000    0.7473367900000000    0.7500000000000000 K
   0.0026632100000000    0.9973367900000000    0.2500000000000000 K
   0.7473367900000000    0.4973367900000000    0.2500000000000000 K
   0.2473367900000000    0.7526632100000000    0.2500000000000000 K
   0.5026632100000000    0.2526632100000000    0.2500000000000000 K
   0.9973367900000000    0.0026632100000000    0.7500000000000000 K
   0.2526632100000000    0.5026632100000000    0.7500000000000000 K
   0.2796281800000000    0.4897765800000000    0.3539161100000000 Ge
   0.5742869300000000    0.9897765800000000    0.3539161100000000 Ge
   0.3641415300000000    0.0742869300000000    0.8539161100000000 Ge
   0.9897765800000000    0.5742869300000000    0.8539161100000000 Ge
   0.7203718200000000    0.5102234200000000    0.6460838900000000 Ge
   0.4257130700000000    0.0102234200000000    0.6460838900000000 Ge
   0.6358584700000000    0.9257130700000000    0.1460838900000000 Ge
   0.0102234200000000    0.4257130700000000    0.1460838900000000 Ge
   0.7796281800000000    0.8641415300000000    0.3539161100000000 Ge
   0.0742869300000000    0.3641415300000000    0.3539161100000000 Ge
   0.8641415300000000    0.7796281800000000    0.8539161100000000 Ge
   0.4897765800000000    0.2796281800000000    0.8539161100000000 Ge
   0.2203718200000000    0.1358584700000000    0.6460838900000000 Ge
   0.9257130700000000    0.6358584700000000    0.6460838900000000 Ge
   0.1358584700000000    0.2203718200000000    0.1460838900000000 Ge
   0.5102234200000000    0.7203718200000000    0.1460838900000000 Ge
