Mn1 Zn3
1.0
      2.3162292770       0.0000000000       0.0000000000
     -1.1581143140       2.0059135822       0.0000000000
      0.0000000000       0.0000000000       7.4477977500
Mn Zn
1 3
direct
   0.6666666666666666    0.3333333333333333    0.0000000000000000 Mn
   0.6666666666666666    0.3333333333333333    0.5000000000000000 Zn
   0.3333333333333333    0.6666666666666666    0.2414190000000000 Zn
   0.3333333333333333    0.6666666666666666    0.7585809999999999 Zn
