Mn1 Zn3
1.0
      2.0437317150       0.0000000000       0.0000000000
     -1.0218655711       1.7699237490       0.0000000000
      0.0000000000       0.0000000000       6.5715862500
Mn Zn
1 3
direct
   0.6666666666666666    0.3333333333333333    0.0000000000000000 Mn
   0.6666666666666666    0.3333333333333333    0.5000000000000000 Zn
   0.3333333333333333    0.6666666666666666    0.2414190000000000 Zn
   0.3333333333333333    0.6666666666666666    0.7585809999999999 Zn
