Li3 Bi1
1.0
      3.6876415068       0.0000000000       2.1290605661
      1.2292135377       3.4767418053       2.1290605654
      0.0000000000       0.0000000000       4.2581211390
Li Bi
3 1
direct
   0.7500000000000000    0.7500000000000000    0.7500000000000000 Li
   0.5000000000000000    0.5000000000000000    0.5000000000000000 Li
   0.2500000000000000    0.2500000000000000    0.2500000000000000 Li
   0.0000000000000000    0.0000000000000000    0.0000000000000000 Bi
