Li3 Bi1
1.0
      3.4827725342       0.0000000000       2.0107794235
      1.1609238967       3.2835894828       2.0107794229
      0.0000000000       0.0000000000       4.0215588535
Li Bi
3 1
direct
   0.7500000000000000    0.7500000000000000    0.7500000000000000 Li
   0.5000000000000000    0.5000000000000000    0.5000000000000000 Li
   0.2500000000000000    0.2500000000000000    0.2500000000000000 Li
   0.0000000000000000    0.0000000000000000    0.0000000000000000 Bi
