Li3 Bi1
1.0
      3.2779035616       0.0000000000       1.8924982809
      1.0926342558       3.0904371603       1.8924982804
      0.0000000000       0.0000000000       3.7849965680
Li Bi
3 1
direct
   0.7500000000000000    0.7500000000000000    0.7500000000000000 Li
   0.5000000000000000    0.5000000000000000    0.5000000000000000 Li
   0.2500000000000000    0.2500000000000000    0.2500000000000000 Li
   0.0000000000000000    0.0000000000000000    0.0000000000000000 Bi
