Gd2 Zn4
1.0
      3.0780614872       0.0000000000       1.3198355991
      1.4425238491       3.8976193398       0.8849888397
      0.0000000000       0.0000000000       4.2491783700
Gd Zn
2 4
direct
   0.5324939800000000    0.7175060200000000    0.2175060200000000 Gd
   0.4675060200000000    0.2824939800000000    0.7824939800000000 Gd
   0.1654288700000000    0.2888384200000000    0.3803018500000000 Zn
   0.8345711300000000    0.7111615800000000    0.6196981499999999 Zn
   0.8345711300000000    0.1196981500000000    0.2111615800000000 Zn
   0.1654288700000000    0.8803018500000001    0.7888384200000000 Zn
