K2 Sn1
1.0
      4.2356517811       0.0000000000       2.4454546960
      1.4118839270       3.9934107962       2.4454546960
      0.0000000000       0.0000000000       4.8909093920
K Sn
2 1
direct
   0.2500000000000000    0.2500000000000000    0.2500000000000000 K
   0.7500000000000000    0.7500000000000000    0.7500000000000000 K
   0.0000000000000000    0.0000000000000000    0.0000000000000000 Sn
