K2 Sn1
1.0
      4.5003800174       0.0000000000       2.5982956145
      1.5001266725       4.2429989710       2.5982956145
      0.0000000000       0.0000000000       5.1965912290
K Sn
2 1
direct
   0.2500000000000000    0.2500000000000000    0.2500000000000000 K
   0.7500000000000000    0.7500000000000000    0.7500000000000000 K
   0.0000000000000000    0.0000000000000000    0.0000000000000000 Sn
