K2 Sn1
1.0
      3.9709235448       0.0000000000       2.2926137775
      1.3236411816       3.7438226214       2.2926137775
      0.0000000000       0.0000000000       4.5852275550
K Sn
2 1
direct
   0.2500000000000000    0.2500000000000000    0.2500000000000000 K
   0.7500000000000000    0.7500000000000000    0.7500000000000000 K
   0.0000000000000000    0.0000000000000000    0.0000000000000000 Sn
