K2 Sn1
1.0
      4.7651082537       0.0000000000       2.7511365330
      1.5883694179       4.4925871457       2.7511365330
      0.0000000000       0.0000000000       5.5022730660
K Sn
2 1
direct
   0.2500000000000000    0.2500000000000000    0.2500000000000000 K
   0.7500000000000000    0.7500000000000000    0.7500000000000000 K
   0.0000000000000000    0.0000000000000000    0.0000000000000000 Sn
