K2 Sn1
1.0
      5.0298364900       0.0000000000       2.9039774515
      1.6766121633       4.7421753205       2.9039774515
      0.0000000000       0.0000000000       5.8079549030
K Sn
2 1
direct
   0.2500000000000000    0.2500000000000000    0.2500000000000000 K
   0.7500000000000000    0.7500000000000000    0.7500000000000000 K
   0.0000000000000000    0.0000000000000000    0.0000000000000000 Sn
