Li3 Pu1
1.0
      4.1759847863       0.0000000000       2.4110059405
      1.3919949288       3.9371562140       2.4110059405
      0.0000000000       0.0000000000       4.8220118810
Li Pu
3 1
direct
   0.2500000000000000    0.2500000000000000    0.2500000000000000 Li
   0.7500000000000000    0.7500000000000000    0.7500000000000000 Li
   0.5000000000000000    0.5000000000000000    0.5000000000000000 Li
   0.0000000000000000    0.0000000000000000    0.0000000000000000 Pu
