Ca2 Zn2
1.0
      3.3450188135       0.0000000000      -1.2552428784
     -0.0000000000       3.7827408645       0.0000000000
      0.0000000000       0.0000000000       5.0845876215
Ca Zn
2 2
direct
   0.8547314200000000    0.2500000000000000    0.7094618499999999 Ca
   0.1452685800000000    0.7500000000000000    0.2905381500000000 Ca
   0.5608784800000000    0.2500000000000000    0.1217569600000000 Zn
   0.4391215200000000    0.7500000000000000    0.8782430400000000 Zn
