Ca2 Zn2
1.0
      3.7385504386       0.0000000000      -1.4029185111
     -0.0000000000       4.2277692015       0.0000000000
      0.0000000000       0.0000000000       5.6827744005
Ca Zn
2 2
direct
   0.8547314200000000    0.2500000000000000    0.7094618499999999 Ca
   0.1452685800000000    0.7500000000000000    0.2905381500000000 Ca
   0.5608784800000000    0.2500000000000000    0.1217569600000000 Zn
   0.4391215200000000    0.7500000000000000    0.8782430400000000 Zn
