K2 O1
1.0
      3.0337185000       0.0000000000       0.0000000000
     -0.0000000000       3.0337185000       0.0000000000
      0.0000000000       0.0000000000       3.8364525000
K O
2 1
direct
   0.0000000000000000    0.0000000000000000    0.0000000000000000 K
   0.5000000000000000    0.5000000000000000    0.5000000000000000 K
   0.0000000000000000    0.0000000000000000    0.5000000000000000 O
