Li1 O8
1.0
      3.1860386649       0.0000000000       1.2707671822
      1.1034638284       3.8340046824       1.4934072426
      0.0000000000       0.0000000000       4.2599868225
Li O
1 8
direct
   0.0091820000000000    0.6052670000000000    0.6052670000000000 Li
   0.8483590000000000    0.2766260000000000    0.7989960000000000 O
   0.1608000000000000    0.2113970000000000    0.7401690000000000 O
   0.1608000000000000    0.7401690000000000    0.2113970000000000 O
   0.8483590000000000    0.7989960000000000    0.2766260000000000 O
   0.8298670000000000    0.2012360000000000    0.2012360000000000 O
   0.1749920000000000    0.7832280000000000    0.7832280000000000 O
   0.1311250000000000    0.1424400000000000    0.1424400000000000 O
   0.8642940000000000    0.8477830000000000    0.8477830000000000 O
