Li1 O8
1.0
      3.3984412426       0.0000000000       1.3554849944
      1.1770280837       4.0896049945       1.5929677254
      0.0000000000       0.0000000000       4.5439859440
Li O
1 8
direct
   0.0091820000000000    0.6052670000000000    0.6052670000000000 Li
   0.8483590000000000    0.2766260000000000    0.7989960000000000 O
   0.1608000000000000    0.2113970000000000    0.7401690000000000 O
   0.1608000000000000    0.7401690000000000    0.2113970000000000 O
   0.8483590000000000    0.7989960000000000    0.2766260000000000 O
   0.8298670000000000    0.2012360000000000    0.2012360000000000 O
   0.1749920000000000    0.7832280000000000    0.7832280000000000 O
   0.1311250000000000    0.1424400000000000    0.1424400000000000 O
   0.8642940000000000    0.8477830000000000    0.8477830000000000 O
