K2 O4
1.0
      3.0801731141       0.0000000000       1.0582998270
      1.5135083547       3.7914296295       0.6065035950
      0.0000000000       0.0000000000       5.0115611040
K O
2 4
direct
   0.5000000000000000    0.5000000000000000    0.5000000000000000 K
   0.0000000000000000    0.0000000000000000    0.0000000000000000 K
   0.0868349800000000    0.0497550000000000    0.5496121899999999 O
   0.1862021700000000    0.4502450000000000    0.9503878100000001 O
   0.8137978300000001    0.5497550000000000    0.0496121900000000 O
   0.9131650200000000    0.9502450000000000    0.4503878100000000 O
