K2 O4
1.0
      3.2726839337       0.0000000000       1.1244435662
      1.6081026269       4.0283939814       0.6444100697
      0.0000000000       0.0000000000       5.3247836730
K O
2 4
direct
   0.5000000000000000    0.5000000000000000    0.5000000000000000 K
   0.0000000000000000    0.0000000000000000    0.0000000000000000 K
   0.0868349800000000    0.0497550000000000    0.5496121899999999 O
   0.1862021700000000    0.4502450000000000    0.9503878100000001 O
   0.8137978300000001    0.5497550000000000    0.0496121900000000 O
   0.9131650200000000    0.9502450000000000    0.4503878100000000 O
