Ga3 Cu1
1.0
      3.6317997000       0.0000000000       0.0000000000
     -0.0000000000       3.6317997000       0.0000000000
      0.0000000000       0.0000000000       3.6317997000
Ga Cu
3 1
direct
   0.0000000000000000    0.5000000000000000    0.5000000000000000 Ga
   0.5000000000000000    0.0000000000000000    0.5000000000000000 Ga
   0.5000000000000000    0.5000000000000000    0.0000000000000000 Ga
   0.0000000000000000    0.0000000000000000    0.0000000000000000 Cu
