Er4 Mn8
1.0
      4.3228080958       0.0000000000       0.2418588379
      2.0061862471       3.8290842998       0.2418588379
      0.0000000000       0.0000000000       7.0912516585
Er Mn
4 8
direct
   0.6694099999999999    0.6694099999999999    0.9384530000000000 Er
   0.3305900000000000    0.3305900000000000    0.0615470000000000 Er
   0.3342940000000000    0.3342940000000000    0.4365110000000000 Er
   0.6657060000000000    0.6657060000000000    0.5634890000000000 Er
   0.0000000000000000    0.0000000000000000    0.0000000000000000 Mn
   0.0000000000000000    0.0000000000000000    0.5000000000000000 Mn
   0.1680020000000000    0.1680020000000000    0.7545440000000000 Mn
   0.8319980000000000    0.8319980000000000    0.2454560000000000 Mn
   0.3294110000000000    0.8399529999999999    0.2556350000000000 Mn
   0.8399529999999999    0.3294110000000000    0.2556350000000000 Mn
   0.6705890000000000    0.1600470000000000    0.7443650000000001 Mn
   0.1600470000000000    0.6705890000000000    0.7443650000000001 Mn
