Sm1 Zn12
1.0
      3.9992044286       0.0000000000       1.6257887970
      1.9980541635       5.3135380539       0.8209109717
      0.0000000000       0.0000000000       5.7358334985
Sm Zn
1 12
direct
   0.0000000000000000    0.0000000000000000    0.0000000000000000 Sm
   0.7196968200000000    0.7808072700000001    0.7808072700000001 Zn
   0.5000000000000000    0.0000000000000000    0.5000000000000000 Zn
   0.0000000000000000    0.5000000000000000    0.0000000000000000 Zn
   0.5000000000000000    0.5000000000000000    0.0000000000000000 Zn
   0.0000000000000000    0.0000000000000000    0.5000000000000000 Zn
   0.3569513300000000    0.6446183100000000    0.6446183100000000 Zn
   0.0000000000000000    0.3555423000000000    0.6444577000000000 Zn
   0.0000000000000000    0.6444577000000000    0.3555423000000000 Zn
   0.6430486700000000    0.3553816900000000    0.3553816900000000 Zn
   0.2803031800000000    0.2191927300000000    0.2191927300000000 Zn
   0.5000000000000000    0.7811603600000000    0.2188396400000000 Zn
   0.5000000000000000    0.2188396400000000    0.7811603600000000 Zn
