Cu1 Rh1
1.0
      2.0267817997       0.0000000000       2.9749017232
      0.9170857977       1.8074285887       2.9749017232
      0.0000000000       0.0000000000       3.5997062080
Cu Rh
1 1
direct
   0.0000000000000000    0.0000000000000000    0.0000000000000000 Cu
   0.5000000000000000    0.5000000000000000    0.5000000000000000 Rh
