Cu1 Rh1
1.0
      2.1534556622       0.0000000000       3.1608330809
      0.9744036600       1.9203928755       3.1608330809
      0.0000000000       0.0000000000       3.8246878460
Cu Rh
1 1
direct
   0.0000000000000000    0.0000000000000000    0.0000000000000000 Cu
   0.5000000000000000    0.5000000000000000    0.5000000000000000 Rh
