Cu1 Rh1
1.0
      2.2801295247       0.0000000000       3.3467644386
      1.0317215224       2.0333571623       3.3467644386
      0.0000000000       0.0000000000       4.0496694840
Cu Rh
1 1
direct
   0.0000000000000000    0.0000000000000000    0.0000000000000000 Cu
   0.5000000000000000    0.5000000000000000    0.5000000000000000 Rh
