Cu1 Rh1
1.0
      2.4068033872       0.0000000000       3.5326957963
      1.0890393847       2.1463214491       3.5326957963
      0.0000000000       0.0000000000       4.2746511220
Cu Rh
1 1
direct
   0.0000000000000000    0.0000000000000000    0.0000000000000000 Cu
   0.5000000000000000    0.5000000000000000    0.5000000000000000 Rh
