Cu1 Rh1
1.0
      1.9001079372       0.0000000000       2.7889703655
      0.8597679353       1.6944643019       2.7889703655
      0.0000000000       0.0000000000       3.3747245700
Cu Rh
1 1
direct
   0.0000000000000000    0.0000000000000000    0.0000000000000000 Cu
   0.5000000000000000    0.5000000000000000    0.5000000000000000 Rh
