Be1 Cu1
1.0
      2.2715976980       0.0000000000       0.0000000000
     -0.0000000000       2.2715976980       0.0000000000
      0.0000000000       0.0000000000       2.2715976980
Be Cu
1 1
direct
   0.0000000000000000    0.0000000000000000    0.0000000000000000 Be
   0.5000000000000000    0.5000000000000000    0.5000000000000000 Cu
