Mn1 V3
1.0
      3.2099838503       0.0000000000       1.8532909077
      1.0699959852       3.0264013185       1.8532909358
      0.0000000000       0.0000000000       3.7065732120
Mn V
1 3
direct
   0.7500006900000000    0.7500007700000000    0.7500007700000000 Mn
   0.9999999899999999    0.9999999600000000    0.9999999600000000 V
   0.4999993300000000    0.4999993100000000    0.4999993100000000 V
   0.2500000000000000    0.2499999600000000    0.2499999600000000 V
