Mn1 V3
1.0
      2.6749865419       0.0000000000       1.5444090898
      0.8916633210       2.5220010987       1.5444091132
      0.0000000000       0.0000000000       3.0888110100
Mn V
1 3
direct
   0.7500006900000000    0.7500007700000000    0.7500007700000000 Mn
   0.9999999899999999    0.9999999600000000    0.9999999600000000 V
   0.4999993300000000    0.4999993100000000    0.4999993100000000 V
   0.2500000000000000    0.2499999600000000    0.2499999600000000 V
