K3 Ca1
1.0
      5.5489966567       0.0000000000       3.2037147135
      1.8496655522       5.2316442197       3.2037147135
      0.0000000000       0.0000000000       6.4074294270
K Ca
3 1
direct
   0.7500000000000000    0.7500000000000000    0.7500000000000000 K
   0.2500000000000000    0.2500000000000000    0.2500000000000000 K
   0.5000000000000000    0.5000000000000000    0.5000000000000000 K
   0.0000000000000000    0.0000000000000000    0.0000000000000000 Ca
