K3 Ca1
1.0
      5.8572742488       0.0000000000       3.3816988643
      1.9524247496       5.5222911208       3.3816988643
      0.0000000000       0.0000000000       6.7633977285
K Ca
3 1
direct
   0.7500000000000000    0.7500000000000000    0.7500000000000000 K
   0.2500000000000000    0.2500000000000000    0.2500000000000000 K
   0.5000000000000000    0.5000000000000000    0.5000000000000000 K
   0.0000000000000000    0.0000000000000000    0.0000000000000000 Ca
