K3 Ca1
1.0
      5.2407190647       0.0000000000       3.0257305628
      1.7469063549       4.9409973186       3.0257305628
      0.0000000000       0.0000000000       6.0514611255
K Ca
3 1
direct
   0.7500000000000000    0.7500000000000000    0.7500000000000000 K
   0.2500000000000000    0.2500000000000000    0.2500000000000000 K
   0.5000000000000000    0.5000000000000000    0.5000000000000000 K
   0.0000000000000000    0.0000000000000000    0.0000000000000000 Ca
