K3 Ca1
1.0
      4.6241638806       0.0000000000       2.6697622613
      1.5413879602       4.3597035164       2.6697622613
      0.0000000000       0.0000000000       5.3395245225
K Ca
3 1
direct
   0.7500000000000000    0.7500000000000000    0.7500000000000000 K
   0.2500000000000000    0.2500000000000000    0.2500000000000000 K
   0.5000000000000000    0.5000000000000000    0.5000000000000000 K
   0.0000000000000000    0.0000000000000000    0.0000000000000000 Ca
