K3 Ca1
1.0
      4.9324414727       0.0000000000       2.8477464120
      1.6441471576       4.6503504175       2.8477464120
      0.0000000000       0.0000000000       5.6954928240
K Ca
3 1
direct
   0.7500000000000000    0.7500000000000000    0.7500000000000000 K
   0.2500000000000000    0.2500000000000000    0.2500000000000000 K
   0.5000000000000000    0.5000000000000000    0.5000000000000000 K
   0.0000000000000000    0.0000000000000000    0.0000000000000000 Ca
