K1 I1
1.0
      3.2183974950       0.0000000000       0.0000000000
     -0.0000000000       3.2183974950       0.0000000000
      0.0000000000       0.0000000000       3.2183974950
K I
1 1
direct
   0.0000000000000000    0.0000000000000000    0.0000000000000000 K
   0.5000000000000000    0.5000000000000000    0.5000000000000000 I
