Cu3 Ni1
1.0
      1.8336465750       0.0000000000       0.0000000000
     -0.7708478340       1.6637467893       0.0000000000
      0.0000000000       0.0000000000       6.1843951875
Cu Ni
3 1
direct
   0.5000000000000000    0.5000000000000000    0.7533087800000000 Cu
   0.0000000000000000    0.0000000000000000    0.5000000000000000 Cu
   0.5000000000000000    0.5000000000000000    0.2466912200000000 Cu
   0.0000000000000000    0.0000000000000000    0.0000000000000000 Ni
