Cu3 Ni1
1.0
      2.2003758900       0.0000000000       0.0000000000
     -0.9250174008       1.9964961471       0.0000000000
      0.0000000000       0.0000000000       7.4212742250
Cu Ni
3 1
direct
   0.5000000000000000    0.5000000000000000    0.7533087800000000 Cu
   0.0000000000000000    0.0000000000000000    0.5000000000000000 Cu
   0.5000000000000000    0.5000000000000000    0.2466912200000000 Cu
   0.0000000000000000    0.0000000000000000    0.0000000000000000 Ni
