Cu3 Ni1
1.0
      2.0781327850       0.0000000000       0.0000000000
     -0.8736275452       1.8855796945       0.0000000000
      0.0000000000       0.0000000000       7.0089812125
Cu Ni
3 1
direct
   0.5000000000000000    0.5000000000000000    0.7533087800000000 Cu
   0.0000000000000000    0.0000000000000000    0.5000000000000000 Cu
   0.5000000000000000    0.5000000000000000    0.2466912200000000 Cu
   0.0000000000000000    0.0000000000000000    0.0000000000000000 Ni
