Cu3 Ni1
1.0
      1.9558896800       0.0000000000       0.0000000000
     -0.8222376896       1.7746632419       0.0000000000
      0.0000000000       0.0000000000       6.5966882000
Cu Ni
3 1
direct
   0.5000000000000000    0.5000000000000000    0.7533087800000000 Cu
   0.0000000000000000    0.0000000000000000    0.5000000000000000 Cu
   0.5000000000000000    0.5000000000000000    0.2466912200000000 Cu
   0.0000000000000000    0.0000000000000000    0.0000000000000000 Ni
