Cu3 Ni1
1.0
      2.3226189950       0.0000000000       0.0000000000
     -0.9764072564       2.1074125998       0.0000000000
      0.0000000000       0.0000000000       7.8335672375
Cu Ni
3 1
direct
   0.5000000000000000    0.5000000000000000    0.7533087800000000 Cu
   0.0000000000000000    0.0000000000000000    0.5000000000000000 Cu
   0.5000000000000000    0.5000000000000000    0.2466912200000000 Cu
   0.0000000000000000    0.0000000000000000    0.0000000000000000 Ni
