Li3 Ca1
1.0
      3.8562662358       0.0000000000      -3.6490013855
     -0.7146181384       3.7894736042      -3.6490013855
      0.0000000000       0.0000000000       5.3090489160
Li Ca
3 1
direct
   0.7500019999999999    0.2500000000000000    0.5000010000000000 Li
   0.2500000000000000    0.7500019999999999    0.5000010000000000 Li
   0.4999990000000000    0.4999990000000000    0.0000000000000000 Li
   0.0000000000000000    0.0000000000000000    0.0000000000000000 Ca
