Li3 Ca1
1.0
      4.0705032489       0.0000000000      -3.8517236847
     -0.7543191461       3.9999999156      -3.8517236847
      0.0000000000       0.0000000000       5.6039960780
Li Ca
3 1
direct
   0.7500019999999999    0.2500000000000000    0.5000010000000000 Li
   0.2500000000000000    0.7500019999999999    0.5000010000000000 Li
   0.4999990000000000    0.4999990000000000    0.0000000000000000 Li
   0.0000000000000000    0.0000000000000000    0.0000000000000000 Ca
