Cu6 Ru2
1.0
      4.7326370400       0.0000000000       0.0000000000
     -2.3663181602       4.0985841113       0.0000000000
      0.0000000000       0.0000000000       3.7907892000
Cu Ru
6 2
direct
   0.1644000000000000    0.3288000000000000    0.2500000000000000 Cu
   0.6712000000000000    0.8356000000000000    0.2500000000000000 Cu
   0.1644000000000000    0.8356000000000000    0.2500000000000000 Cu
   0.8356000000000000    0.6712000000000000    0.7500000000000000 Cu
   0.3288000000000000    0.1644000000000000    0.7500000000000000 Cu
   0.8356000000000000    0.1644000000000000    0.7500000000000000 Cu
   0.3333333333333333    0.6666666666666666    0.7500000000000000 Ru
   0.6666666666666666    0.3333333333333333    0.2500000000000000 Ru
