Ce2 Zn17
1.0
      6.0413004487       0.0000000000       0.7586907246
      0.6693762766       6.0041061376       0.7586890302
      0.0000000000       0.0000000000       6.0887558340
Ce Zn
2 17
direct
   0.3375426300000000    0.3375426300000000    0.3375426300000000 Ce
   0.6624573700000000    0.6624573700000000    0.6624573700000000 Ce
   0.0990893100000000    0.0990893100000000    0.0990893100000000 Zn
   0.9009106900000000    0.9009106900000000    0.9009106900000000 Zn
   0.0000000000000000    0.0000000000000000    0.5000000000000000 Zn
   0.5000000000000000    0.0000000000000000    0.0000000000000000 Zn
   0.0000000000000000    0.5000000000000000    0.0000000000000000 Zn
   0.7086265300000000    0.2913734700000000    0.0000000000000000 Zn
   0.0000000000000000    0.7086265300000000    0.2913734700000000 Zn
   0.2913734700000000    0.0000000000000000    0.7086265300000000 Zn
   0.2913734700000000    0.7086265300000000    0.0000000000000000 Zn
   0.0000000000000000    0.2913734700000000    0.7086265300000000 Zn
   0.7086265300000000    0.0000000000000000    0.2913734700000000 Zn
   0.6505300899999999    0.1592535600000000    0.6505300899999999 Zn
   0.6505300899999999    0.6505300899999999    0.1592535600000000 Zn
   0.1592535600000000    0.6505300899999999    0.6505300899999999 Zn
   0.8407464400000000    0.3494699100000000    0.3494699100000000 Zn
   0.3494699100000000    0.8407464400000000    0.3494699100000000 Zn
   0.3494699100000000    0.3494699100000000    0.8407464400000000 Zn
