Li4 Mg2
1.0
      2.6165300610       0.0000000000       0.0000000000
     -1.3082650292       2.2659796974       0.0000000000
      0.0000000000       0.0000000000      13.1188119995
Li Mg
4 2
direct
   0.0000000000000000    0.0000000000000000    0.9994613500000000 Li
   0.0000000000000000    0.0000000000000000    0.3338716500000000 Li
   0.6666666666666666    0.3333333333333333    0.4994613500000000 Li
   0.6666666666666666    0.3333333333333333    0.8338716500000000 Li
   0.6666666666666666    0.3333333333333333    0.1666670000000000 Mg
   0.0000000000000000    0.0000000000000000    0.6666666666666666 Mg
