Li4 Mg2
1.0
      2.9243571270       0.0000000000       0.0000000000
     -1.4621785620       2.5325655441       0.0000000000
      0.0000000000       0.0000000000      14.6622016465
Li Mg
4 2
direct
   0.0000000000000000    0.0000000000000000    0.9994613500000000 Li
   0.0000000000000000    0.0000000000000000    0.3338716500000000 Li
   0.6666666666666666    0.3333333333333333    0.4994613500000000 Li
   0.6666666666666666    0.3333333333333333    0.8338716500000000 Li
   0.6666666666666666    0.3333333333333333    0.1666670000000000 Mg
   0.0000000000000000    0.0000000000000000    0.6666666666666666 Mg
