Mn1 B2
1.0
      2.6906030280       0.0000000000       0.0000000000
     -1.3453028916       2.3301311294       0.0000000000
      0.0000000000       0.0000000000       2.7884176830
Mn B
1 2
direct
   0.0000000000000000    0.0000000000000000    0.0000000000000000 Mn
   0.3333333333333333    0.6666666666666666    0.5000000000000000 B
   0.6666666666666666    0.3333333333333333    0.5000000000000000 B
