Mn1 B2
1.0
      2.5411250820       0.0000000000       0.0000000000
     -1.2705638421       2.2006794000       0.0000000000
      0.0000000000       0.0000000000       2.6335055895
Mn B
1 2
direct
   0.0000000000000000    0.0000000000000000    0.0000000000000000 Mn
   0.3333333333333333    0.6666666666666666    0.5000000000000000 B
   0.6666666666666666    0.3333333333333333    0.5000000000000000 B
