Mn1 B2
1.0
      2.8400809740       0.0000000000       0.0000000000
     -1.4200419412       2.4595828588       0.0000000000
      0.0000000000       0.0000000000       2.9433297765
Mn B
1 2
direct
   0.0000000000000000    0.0000000000000000    0.0000000000000000 Mn
   0.3333333333333333    0.6666666666666666    0.5000000000000000 B
   0.6666666666666666    0.3333333333333333    0.5000000000000000 B
