Mn1 Zn3
1.0
      3.2375515785       0.0000000000       0.0000000000
     -0.0000000000       3.2375515785       0.0000000000
      0.0000000000       0.0000000000       3.2375524795
Mn Zn
1 3
direct
   0.0000000000000000    0.0000000000000000    0.0000000000000000 Mn
   0.0000000000000000    0.5000000000000000    0.5000000000000000 Zn
   0.5000000000000000    0.5000000000000000    0.0000000000000000 Zn
   0.5000000000000000    0.0000000000000000    0.5000000000000000 Zn
