K2 Ba6
1.0
      7.7181240235       0.0000000000       0.0000000000
     -3.8590619336       6.6840915190       0.0000000000
      0.0000000000       0.0000000000       6.3343802000
K Ba
2 6
direct
   0.6666666666666666    0.3333333333333333    0.2500000000000000 K
   0.3333333333333333    0.6666666666666666    0.7500000000000000 K
   0.8373100000000000    0.6746200000000000    0.7500000000000000 Ba
   0.1626900000000000    0.8373100000000000    0.2500000000000000 Ba
   0.6746200000000000    0.8373100000000000    0.2500000000000000 Ba
   0.1626900000000000    0.3253800000000000    0.2500000000000000 Ba
   0.3253800000000000    0.1626900000000000    0.7500000000000000 Ba
   0.8373100000000000    0.1626900000000000    0.7500000000000000 Ba
