K2 Ba6
1.0
      8.1721313190       0.0000000000       0.0000000000
     -4.0860655767       7.0772733731       0.0000000000
      0.0000000000       0.0000000000       6.7069908000
K Ba
2 6
direct
   0.6666666666666666    0.3333333333333333    0.2500000000000000 K
   0.3333333333333333    0.6666666666666666    0.7500000000000000 K
   0.8373100000000000    0.6746200000000000    0.7500000000000000 Ba
   0.1626900000000000    0.8373100000000000    0.2500000000000000 Ba
   0.6746200000000000    0.8373100000000000    0.2500000000000000 Ba
   0.1626900000000000    0.3253800000000000    0.2500000000000000 Ba
   0.3253800000000000    0.1626900000000000    0.7500000000000000 Ba
   0.8373100000000000    0.1626900000000000    0.7500000000000000 Ba
