Nd3 Cu1
1.0
      4.0917876659       0.0000000000      -3.9884326666
     -0.7277360277       4.0265526915      -3.9884326666
      0.0000000000       0.0000000000       5.7140459780
Nd Cu
3 1
direct
   0.7500000000000000    0.2500000000000000    0.5000000000000000 Nd
   0.2500000000000000    0.7500000000000000    0.5000000000000000 Nd
   0.5000000000000000    0.5000000000000000    0.0000000000000000 Nd
   0.0000000000000000    0.0000000000000000    0.0000000000000000 Cu
