Nd3 Cu1
1.0
      3.8764304204       0.0000000000      -3.7785151578
     -0.6894341315       3.8146288656      -3.7785151578
      0.0000000000       0.0000000000       5.4133067160
Nd Cu
3 1
direct
   0.7500000000000000    0.2500000000000000    0.5000000000000000 Nd
   0.2500000000000000    0.7500000000000000    0.5000000000000000 Nd
   0.5000000000000000    0.5000000000000000    0.0000000000000000 Nd
   0.0000000000000000    0.0000000000000000    0.0000000000000000 Cu
