Nd3 Cu1
1.0
      3.4457159292       0.0000000000      -3.3586801403
     -0.6128303391       3.3907812139      -3.3586801403
      0.0000000000       0.0000000000       4.8118281920
Nd Cu
3 1
direct
   0.7500000000000000    0.2500000000000000    0.5000000000000000 Nd
   0.2500000000000000    0.7500000000000000    0.5000000000000000 Nd
   0.5000000000000000    0.5000000000000000    0.0000000000000000 Nd
   0.0000000000000000    0.0000000000000000    0.0000000000000000 Cu
