Nd3 Cu1
1.0
      3.2303586836       0.0000000000      -3.1487626315
     -0.5745284429       3.1788573880      -3.1487626315
      0.0000000000       0.0000000000       4.5110889300
Nd Cu
3 1
direct
   0.7500000000000000    0.2500000000000000    0.5000000000000000 Nd
   0.2500000000000000    0.7500000000000000    0.5000000000000000 Nd
   0.5000000000000000    0.5000000000000000    0.0000000000000000 Nd
   0.0000000000000000    0.0000000000000000    0.0000000000000000 Cu
