Nd3 Cu1
1.0
      3.6610731748       0.0000000000      -3.5685976490
     -0.6511322353       3.6027050397      -3.5685976490
      0.0000000000       0.0000000000       5.1125674540
Nd Cu
3 1
direct
   0.7500000000000000    0.2500000000000000    0.5000000000000000 Nd
   0.2500000000000000    0.7500000000000000    0.5000000000000000 Nd
   0.5000000000000000    0.5000000000000000    0.0000000000000000 Nd
   0.0000000000000000    0.0000000000000000    0.0000000000000000 Cu
