Cu6 Si2
1.0
      4.1080447934       0.0000000000      -0.0007171690
     -2.0529427695       3.5583163227       0.0007056905
      0.0000000000       0.0000000000       3.2596668880
Cu Si
6 2
direct
   0.1679344100000000    0.3358910700000000    0.2500167500000000 Cu
   0.6641123500000000    0.8320666200000000    0.2500214700000000 Cu
   0.1679142200000000    0.8320852200000000    0.2499604400000000 Cu
   0.8320637100000000    0.6641078500000001    0.7499844000000000 Cu
   0.3358891800000000    0.1679330700000000    0.7499796500000000 Cu
   0.8320858300000000    0.1679139700000000    0.7500345300000000 Cu
   0.3333333333333333    0.6666666666666666    0.7500006200000000 Si
   0.6666666666666666    0.3333333333333333    0.2499991500000000 Si
