Li3 Ac1
1.0
      3.5049114865       0.0000000000      -3.2476167863
     -0.6684210895       3.4405839294      -3.2476167863
      0.0000000000       0.0000000000       4.7782234480
Li Ac
3 1
direct
   0.7500000000000000    0.2500000000000000    0.5000000000000000 Li
   0.2500000000000000    0.7500000000000000    0.5000000000000000 Li
   0.5000000000000000    0.5000000000000000    0.0000000000000000 Li
   0.0000000000000000    0.0000000000000000    0.0000000000000000 Ac
