Li3 Ac1
1.0
      3.2858545186       0.0000000000      -3.0446407371
     -0.6266447714       3.2255474339      -3.0446407371
      0.0000000000       0.0000000000       4.4795844825
Li Ac
3 1
direct
   0.7500000000000000    0.2500000000000000    0.5000000000000000 Li
   0.2500000000000000    0.7500000000000000    0.5000000000000000 Li
   0.5000000000000000    0.5000000000000000    0.0000000000000000 Li
   0.0000000000000000    0.0000000000000000    0.0000000000000000 Ac
