Li3 Ac1
1.0
      3.9430254223       0.0000000000      -3.6535688846
     -0.7519737257       3.8706569206      -3.6535688846
      0.0000000000       0.0000000000       5.3755013790
Li Ac
3 1
direct
   0.7500000000000000    0.2500000000000000    0.5000000000000000 Li
   0.2500000000000000    0.7500000000000000    0.5000000000000000 Li
   0.5000000000000000    0.5000000000000000    0.0000000000000000 Li
   0.0000000000000000    0.0000000000000000    0.0000000000000000 Ac
