Mn2 Sb2
1.0
      3.3229239680       0.0000000000      -0.0000001618
     -1.6613886149       2.8777791420       0.0000003967
      0.0000000000       0.0000000000       4.6302370480
Mn Sb
2 2
direct
   0.9999999800000000    0.9999999300000000    0.5000001900000000 Mn
   0.9999999800000000    0.9999999800000000    0.9999998100000000 Mn
   0.3333333333333333    0.6666666666666666    0.2496452700000000 Sb
   0.6666666666666666    0.3333333333333333    0.7503547300000000 Sb
