Mn1 Pt3
1.0
      3.1287708240       0.0000000000       0.0000000000
     -0.0000000000       3.1287716480       0.0000000000
      0.0000000000       0.0000000000       3.1287716480
Mn Pt
1 3
direct
   0.0000000000000000    0.0000000000000000    0.0000000000000000 Mn
   0.0000000000000000    0.5000000000000000    0.5000000000000000 Pt
   0.5000000000000000    0.5000000000000000    0.0000000000000000 Pt
   0.5000000000000000    0.0000000000000000    0.5000000000000000 Pt
