Mn1 Pt3
1.0
      2.9332226475       0.0000000000       0.0000000000
     -0.0000000000       2.9332234200       0.0000000000
      0.0000000000       0.0000000000       2.9332234200
Mn Pt
1 3
direct
   0.0000000000000000    0.0000000000000000    0.0000000000000000 Mn
   0.0000000000000000    0.5000000000000000    0.5000000000000000 Pt
   0.5000000000000000    0.5000000000000000    0.0000000000000000 Pt
   0.5000000000000000    0.0000000000000000    0.5000000000000000 Pt
