Li4 Mg2
1.0
      2.9787650910       0.0000000000       0.0000000000
     -1.4893834315       4.6990280222       1.5567143503
      0.0000000000       0.0000000000       6.3155871630
Li Mg
4 2
direct
   0.0294129500000000    0.0588228900000000    0.9593459500000000 Li
   0.6985997100000000    0.3972004100000000    0.1095383700000000 Li
   0.3569552900000000    0.7139115900000000    0.2793496300000000 Li
   0.0261440500000000    0.0522891100000000    0.4295430500000000 Li
   0.6863416800000000    0.3726833600000000    0.6113008500000000 Mg
   0.3692133200000000    0.7384276400000001    0.7775881500000000 Mg
