Lu2 Zn4
1.0
      3.0063460500       0.0000000000       1.2989445619
      1.3628841623       3.7733316878       0.9741652318
      0.0000000000       0.0000000000       4.1284964775
Lu Zn
2 4
direct
   0.4727114300000000    0.2772885700000000    0.7772885700000000 Lu
   0.5272885700000000    0.7227114300000000    0.2227114300000000 Lu
   0.8339757900000000    0.1256065300000000    0.2064398900000000 Zn
   0.1660242100000000    0.8743934700000000    0.7935601100000000 Zn
   0.8339757900000000    0.7064398900000000    0.6256065300000000 Zn
   0.1660242100000000    0.2935601100000000    0.3743934700000000 Zn
