Li2 Se1
1.0
      2.7336712473       0.0000000000       1.5782857485
      0.9112237509       2.5773300029       1.5782857515
      0.0000000000       0.0000000000       3.1565715000
Li Se
2 1
direct
   0.2500000000000000    0.2500000000000000    0.2500000000000000 Li
   0.7500000000000000    0.7500000000000000    0.7500000000000000 Li
   0.0000000000000000    0.0000000000000000    0.0000000000000000 Se
