Li2 Se1
1.0
      3.4626502466       0.0000000000       1.9991619480
      1.1542167511       3.2646180037       1.9991619519
      0.0000000000       0.0000000000       3.9983239000
Li Se
2 1
direct
   0.2500000000000000    0.2500000000000000    0.2500000000000000 Li
   0.7500000000000000    0.7500000000000000    0.7500000000000000 Li
   0.0000000000000000    0.0000000000000000    0.0000000000000000 Se
