Li2 Se1
1.0
      3.0981607470       0.0000000000       1.7887238482
      1.0327202510       2.9209740033       1.7887238517
      0.0000000000       0.0000000000       3.5774477000
Li Se
2 1
direct
   0.2500000000000000    0.2500000000000000    0.2500000000000000 Li
   0.7500000000000000    0.7500000000000000    0.7500000000000000 Li
   0.0000000000000000    0.0000000000000000    0.0000000000000000 Se
