Li3 W1
1.0
      2.6607783107       0.0000000000      -2.8041055942
     -0.4234622173       2.6268652363      -2.8041055942
      0.0000000000       0.0000000000       3.8655852600
Li W
3 1
direct
   0.7500000000000000    0.2500000000000000    0.5000000000000000 Li
   0.2500000000000000    0.7500000000000000    0.5000000000000000 Li
   0.5000000000000000    0.5000000000000000    0.0000000000000000 Li
   0.0000000000000000    0.0000000000000000    0.0000000000000000 W
