Li3 W1
1.0
      3.1929339729       0.0000000000      -3.3649267130
     -0.5081546607       3.1522382835      -3.3649267130
      0.0000000000       0.0000000000       4.6387023120
Li W
3 1
direct
   0.7500000000000000    0.2500000000000000    0.5000000000000000 Li
   0.2500000000000000    0.7500000000000000    0.5000000000000000 Li
   0.5000000000000000    0.5000000000000000    0.0000000000000000 Li
   0.0000000000000000    0.0000000000000000    0.0000000000000000 W
