Mn2 Pd2
1.0
      3.1763032545       0.0000000000       0.0000000000
     -0.0000000000       4.0319491690       0.0000000000
      0.0000000000       0.0000000000       4.0319491690
Mn Pd
2 2
direct
   0.0000000000000000    0.0000000000000000    0.0000000000000000 Mn
   0.0000000000000000    0.5000000000000000    0.5000000000000000 Mn
   0.5000000000000000    0.0000000000000000    0.5000000000000000 Pd
   0.5000000000000000    0.5000000000000000    0.0000000000000000 Pd
