Mn2 Pd2
1.0
      2.8419555435       0.0000000000       0.0000000000
     -0.0000000000       3.6075334670       0.0000000000
      0.0000000000       0.0000000000       3.6075334670
Mn Pd
2 2
direct
   0.0000000000000000    0.0000000000000000    0.0000000000000000 Mn
   0.0000000000000000    0.5000000000000000    0.5000000000000000 Mn
   0.5000000000000000    0.0000000000000000    0.5000000000000000 Pd
   0.5000000000000000    0.5000000000000000    0.0000000000000000 Pd
