Mn2 Pd2
1.0
      2.6747816880       0.0000000000       0.0000000000
     -0.0000000000       3.3953256160       0.0000000000
      0.0000000000       0.0000000000       3.3953256160
Mn Pd
2 2
direct
   0.0000000000000000    0.0000000000000000    0.0000000000000000 Mn
   0.0000000000000000    0.5000000000000000    0.5000000000000000 Mn
   0.5000000000000000    0.0000000000000000    0.5000000000000000 Pd
   0.5000000000000000    0.5000000000000000    0.0000000000000000 Pd
