Li2 Zn2
1.0
      3.5275491768       0.0000000000       2.0366306246
      1.1758494086       3.3258047073       2.0366306247
      0.0000000000       0.0000000000       4.0732622085
Li Zn
2 2
direct
   0.8750000000000000    0.8750000000000000    0.8750000000000000 Li
   0.1250000000000000    0.1250000000000000    0.1250000000000000 Li
   0.3750000000000000    0.3750000000000000    0.3750000000000000 Zn
   0.6250000000000000    0.6250000000000000    0.6250000000000000 Zn
