Li2 Zn2
1.0
      2.7849072448       0.0000000000       1.6078662826
      0.9283021647       2.6256352952       1.6078662827
      0.0000000000       0.0000000000       3.2157333225
Li Zn
2 2
direct
   0.8750000000000000    0.8750000000000000    0.8750000000000000 Li
   0.1250000000000000    0.1250000000000000    0.1250000000000000 Li
   0.3750000000000000    0.3750000000000000    0.3750000000000000 Zn
   0.6250000000000000    0.6250000000000000    0.6250000000000000 Zn
