K3 Hg1
1.0
      5.0311317801       0.0000000000      -4.3987080561
     -1.0370337091       4.9230933441      -4.3987080561
      0.0000000000       0.0000000000       6.6828825780
K Hg
3 1
direct
   0.7500010000000000    0.2500010000000000    0.5000000000000000 K
   0.2500010000000000    0.7500010000000000    0.5000000000000000 K
   0.5000000000000000    0.5000000000000000    0.0000000000000000 K
   0.0000000000000000    0.0000000000000000    0.0000000000000000 Hg
