K3 Hg1
1.0
      3.9719461422       0.0000000000      -3.4726642548
     -0.8187108230       3.8866526401      -3.4726642548
      0.0000000000       0.0000000000       5.2759599300
K Hg
3 1
direct
   0.7500010000000000    0.2500010000000000    0.5000000000000000 K
   0.2500010000000000    0.7500010000000000    0.5000000000000000 K
   0.5000000000000000    0.5000000000000000    0.0000000000000000 K
   0.0000000000000000    0.0000000000000000    0.0000000000000000 Hg
