K3 Hg1
1.0
      4.5015389612       0.0000000000      -3.9356861554
     -0.9278722660       4.4048729921      -3.9356861554
      0.0000000000       0.0000000000       5.9794212540
K Hg
3 1
direct
   0.7500010000000000    0.2500010000000000    0.5000000000000000 K
   0.2500010000000000    0.7500010000000000    0.5000000000000000 K
   0.5000000000000000    0.5000000000000000    0.0000000000000000 K
   0.0000000000000000    0.0000000000000000    0.0000000000000000 Hg
