K3 Hg1
1.0
      4.7663353706       0.0000000000      -4.1671971057
     -0.9824529876       4.6639831681      -4.1671971057
      0.0000000000       0.0000000000       6.3311519160
K Hg
3 1
direct
   0.7500010000000000    0.2500010000000000    0.5000000000000000 K
   0.2500010000000000    0.7500010000000000    0.5000000000000000 K
   0.5000000000000000    0.5000000000000000    0.0000000000000000 K
   0.0000000000000000    0.0000000000000000    0.0000000000000000 Hg
