K3 Hg1
1.0
      4.2367425517       0.0000000000      -3.7041752051
     -0.8732915445       4.1457628161      -3.7041752051
      0.0000000000       0.0000000000       5.6276905920
K Hg
3 1
direct
   0.7500010000000000    0.2500010000000000    0.5000000000000000 K
   0.2500010000000000    0.7500010000000000    0.5000000000000000 K
   0.5000000000000000    0.5000000000000000    0.0000000000000000 K
   0.0000000000000000    0.0000000000000000    0.0000000000000000 Hg
