Li6 Eu2
1.0
      5.1933337575       0.0000000000       0.0000000000
     -2.5966661362       4.4975593931       0.0000000000
      0.0000000000       0.0000000000       4.0434967500
Li Eu
6 2
direct
   0.1452090000000000    0.2904170000000000    0.2500000000000000 Li
   0.7095830000000000    0.8547910000000000    0.2500000000000000 Li
   0.1452090000000000    0.8547910000000000    0.2500000000000000 Li
   0.8547910000000000    0.7095830000000000    0.7500000000000000 Li
   0.2904170000000000    0.1452090000000000    0.7500000000000000 Li
   0.8547910000000000    0.1452090000000000    0.7500000000000000 Li
   0.3333333333333333    0.6666666666666666    0.7500000000000000 Eu
   0.6666666666666666    0.3333333333333333    0.2500000000000000 Eu
