Li8 Cd4
1.0
      5.8705708200       0.0000000000       3.3893756433
      1.9568569400       5.5348272484       3.3893756433
      0.0000000000       0.0000000000       6.7787512865
Li Cd
8 4
direct
   0.3983840000000000    0.3983840000000000    0.3983840000000000 Li
   0.3983840000000000    0.3983840000000000    0.8048490000000000 Li
   0.3983840000000000    0.8048490000000000    0.3983840000000000 Li
   0.8516160000000000    0.8516160000000000    0.4451510000000000 Li
   0.8516160000000000    0.8516160000000000    0.8516160000000000 Li
   0.8048490000000000    0.3983840000000000    0.3983840000000000 Li
   0.8516160000000000    0.4451510000000000    0.8516160000000000 Li
   0.4451510000000000    0.8516160000000000    0.8516160000000000 Li
   0.1250000000000000    0.1250000000000000    0.1250000000000000 Cd
   0.1250000000000000    0.1250000000000000    0.6250000000000000 Cd
   0.1250000000000000    0.6250000000000000    0.1250000000000000 Cd
   0.6250000000000000    0.1250000000000000    0.1250000000000000 Cd
