Li1 Ca3
1.0
      3.5902788676       0.0000000000      -3.4784207843
     -0.6439647045       3.5320548986      -3.4784207843
      0.0000000000       0.0000000000       4.9989512400
Li Ca
1 3
direct
   0.0000000000000000    0.0000000000000000    0.0000000000000000 Li
   0.7500000000000000    0.2500000000000000    0.5000000000000000 Ca
   0.2500000000000000    0.7500000000000000    0.5000000000000000 Ca
   0.5000000000000000    0.5000000000000000    0.0000000000000000 Ca
