Cu1 Cl1
1.0
      3.1404055574       0.0000000000       1.7489127165
      1.0278519691       2.9674344802       1.7489127165
      0.0000000000       0.0000000000       3.5945569900
Cu Cl
1 1
direct
   0.9872940000000000    0.9872940000000000    0.9872940000000000 Cu
   0.2457060000000000    0.2457060000000000    0.2457060000000000 Cl
