Cu1 Cl1
1.0
      2.9751210543       0.0000000000       1.6568646788
      0.9737544971       2.8112537181       1.6568646788
      0.0000000000       0.0000000000       3.4053697800
Cu Cl
1 1
direct
   0.9872940000000000    0.9872940000000000    0.9872940000000000 Cu
   0.2457060000000000    0.2457060000000000    0.2457060000000000 Cl
