Cu1 Cl1
1.0
      2.6445520483       0.0000000000       1.4727686034
      0.8655595529       2.4988921938       1.4727686034
      0.0000000000       0.0000000000       3.0269953600
Cu Cl
1 1
direct
   0.9872940000000000    0.9872940000000000    0.9872940000000000 Cu
   0.2457060000000000    0.2457060000000000    0.2457060000000000 Cl
