Cu1 Cl1
1.0
      2.8098365513       0.0000000000       1.5648166411
      0.9196570250       2.6550729560       1.5648166411
      0.0000000000       0.0000000000       3.2161825700
Cu Cl
1 1
direct
   0.9872940000000000    0.9872940000000000    0.9872940000000000 Cu
   0.2457060000000000    0.2457060000000000    0.2457060000000000 Cl
