Cu1 Cl1
1.0
      2.4792675453       0.0000000000       1.3807205656
      0.8114620809       2.3427114317       1.3807205656
      0.0000000000       0.0000000000       2.8378081500
Cu Cl
1 1
direct
   0.9872940000000000    0.9872940000000000    0.9872940000000000 Cu
   0.2457060000000000    0.2457060000000000    0.2457060000000000 Cl
