Li2 Ho6
1.0
      6.6261825595       0.0000000000       0.0000000000
     -3.3130922362       5.7384418744       0.0000000000
      0.0000000000       0.0000000000       5.2309261000
Li Ho
2 6
direct
   0.6666666666666666    0.3333333333333333    0.2500000000000000 Li
   0.3333333333333333    0.6666666666666666    0.7500000000000000 Li
   0.8314319999999999    0.1685680000000000    0.7500000000000000 Ho
   0.3371360000000000    0.1685680000000000    0.7500000000000000 Ho
   0.8314319999999999    0.6628640000000000    0.7500000000000000 Ho
   0.1685680000000000    0.8314319999999999    0.2500000000000000 Ho
   0.6628640000000000    0.8314319999999999    0.2500000000000000 Ho
   0.1685680000000000    0.3371360000000000    0.2500000000000000 Ho
