Li1 F1
1.0
      2.3755490982       0.0000000000       1.3715244990
      0.7918496993       2.2396895988       1.3715244994
      0.0000000000       0.0000000000       2.7430480500
Li F
1 1
direct
   0.0000000000000000    0.0000000000000000    0.0000000000000000 Li
   0.5000000000000000    0.5000000000000000    0.5000000000000000 F
