Li1 F1
1.0
      2.0004623985       0.0000000000       1.1549679991
      0.6668207994       1.8860543990       1.1549679995
      0.0000000000       0.0000000000       2.3099352000
Li F
1 1
direct
   0.0000000000000000    0.0000000000000000    0.0000000000000000 Li
   0.5000000000000000    0.5000000000000000    0.5000000000000000 F
