Mg2 O2
1.0
      2.6462294240       0.0000000000       0.0000000000
     -1.3231151108       2.2917020539       0.0000000000
      0.0000000000       0.0000000000       3.9863053360
Mg O
2 2
direct
   0.3333333333333333    0.6666666666666666    0.0021597400000000 Mg
   0.6666666666666666    0.3333333333333333    0.5021597400000000 Mg
   0.3333333333333333    0.6666666666666666    0.4024402600000000 O
   0.6666666666666666    0.3333333333333333    0.9024402600000000 O
