Mg2 O2
1.0
      3.1423974410       0.0000000000       0.0000000000
     -1.5711991941       2.7213961890       0.0000000000
      0.0000000000       0.0000000000       4.7337375865
Mg O
2 2
direct
   0.3333333333333333    0.6666666666666666    0.0021597400000000 Mg
   0.6666666666666666    0.3333333333333333    0.5021597400000000 Mg
   0.3333333333333333    0.6666666666666666    0.4024402600000000 O
   0.6666666666666666    0.3333333333333333    0.9024402600000000 O
