Ba2 Zn1
1.0
      3.4122936414       0.0000000000      -0.8971604307
     -0.2358814695       3.4041309944      -0.8971604307
      0.0000000000       0.0000000000       6.9378066920
Ba Zn
2 1
direct
   0.6259783600000000    0.6259783600000000    0.2519587200000000 Ba
   0.3740216400000000    0.3740216400000000    0.7480412800000000 Ba
   0.0000000000000000    0.0000000000000000    0.0000000000000000 Zn
