Ba2 Zn1
1.0
      3.2115704860       0.0000000000      -0.8443862877
     -0.2220060889       3.2038879948      -0.8443862877
      0.0000000000       0.0000000000       6.5297004160
Ba Zn
2 1
direct
   0.6259783600000000    0.6259783600000000    0.2519587200000000 Ba
   0.3740216400000000    0.3740216400000000    0.7480412800000000 Ba
   0.0000000000000000    0.0000000000000000    0.0000000000000000 Zn
