Li1 Re3
1.0
      3.3651003094       0.0000000000       1.9428415695
      1.1217001031       3.1726469976       1.9428415695
      0.0000000000       0.0000000000       3.8856831390
Li Re
1 3
direct
   0.0000000000000000    0.0000000000000000    0.0000000000000000 Li
   0.7500000000000000    0.7500000000000000    0.7500000000000000 Re
   0.2500000000000000    0.2500000000000000    0.2500000000000000 Re
   0.5000000000000000    0.5000000000000000    0.5000000000000000 Re
