Li1 Re3
1.0
      3.1781502922       0.0000000000       1.8349059268
      1.0593834307       2.9963888310       1.8349059268
      0.0000000000       0.0000000000       3.6698118535
Li Re
1 3
direct
   0.0000000000000000    0.0000000000000000    0.0000000000000000 Li
   0.7500000000000000    0.7500000000000000    0.7500000000000000 Re
   0.2500000000000000    0.2500000000000000    0.2500000000000000 Re
   0.5000000000000000    0.5000000000000000    0.5000000000000000 Re
