Li2 Mg4
1.0
      5.4084511669       0.0000000000       1.4189966357
      4.5524573000       2.9200131090       1.4189966357
      0.0000000000       0.0000000000       7.0081967210
Li Mg
2 4
direct
   0.5277310000000000    0.5277310000000000    0.1952750000000000 Li
   0.4722690000000000    0.4722690000000000    0.8047250000000000 Li
   0.8082490000000000    0.8082490000000000    0.1356080000000000 Mg
   0.1386930000000000    0.1386930000000000    0.4711320000000000 Mg
   0.8613070000000000    0.8613070000000000    0.5288680000000000 Mg
   0.1917510000000000    0.1917510000000000    0.8643920000000000 Mg
