Li1 In3
1.0
      3.8189230100       0.0000000000       0.0000000000
     -0.0000000000       3.8189230100       0.0000000000
      0.0000000000       0.0000000000       3.8189212760
Li In
1 3
direct
   0.5000000000000000    0.5000000000000000    0.5000000000000000 Li
   0.5000000000000000    0.0000000000000000    0.0000000000000000 In
   0.0000000000000000    0.5000000000000000    0.0000000000000000 In
   0.0000000000000000    0.0000000000000000    0.5000000000000000 In
