Li3 Cu1
1.0
      3.4511987033       0.0000000000      -2.6692301217
     -0.8312404657       3.3495987488      -2.6692301217
      0.0000000000       0.0000000000       4.3629762700
Li Cu
3 1
direct
   0.7499980000000001    0.2500000000000000    0.4999980000000000 Li
   0.2500000000000000    0.7499980000000001    0.4999980000000000 Li
   0.5000000000000000    0.5000000000000000    0.0000000000000000 Li
   0.0000000000000000    0.0000000000000000    0.0000000000000000 Cu
