Li3 Cu1
1.0
      2.9062725923       0.0000000000      -2.2477727341
     -0.6999919712       2.8207147358      -2.2477727341
      0.0000000000       0.0000000000       3.6740852800
Li Cu
3 1
direct
   0.7499980000000001    0.2500000000000000    0.4999980000000000 Li
   0.2500000000000000    0.7499980000000001    0.4999980000000000 Li
   0.5000000000000000    0.5000000000000000    0.0000000000000000 Li
   0.0000000000000000    0.0000000000000000    0.0000000000000000 Cu
