Li1 O8
1.0
      2.9414113294       0.0000000000       0.9708124919
      0.9709097745       3.8616468884       1.2240116164
      0.0000000000       0.0000000000       4.1657161200
Li O
1 8
direct
   0.5000000000000000    0.5000000000000000    0.5000000000000000 Li
   0.8340476300000000    0.3296508300000000    0.7275017700000000 O
   0.1659523700000000    0.2724982300000000    0.6703491700000000 O
   0.1659523700000000    0.6703491700000000    0.2724982300000000 O
   0.8340476300000000    0.7275017700000000    0.3296508300000000 O
   0.8466610600000000    0.2432063800000000    0.2432063800000000 O
   0.1533389400000000    0.7567936199999999    0.7567936199999999 O
   0.1687900700000000    0.1847783900000000    0.1847783900000000 O
   0.8312099300000000    0.8152216100000000    0.8152216100000000 O
