Li1 Al3
1.0
      2.9218155623       0.0000000000      -2.5990980102
     -0.5886332979       2.8619079337      -2.5990980102
      0.0000000000       0.0000000000       3.9105391760
Li Al
1 3
direct
   0.0000000000000000    0.0000000000000000    0.0000000000000000 Li
   0.7499980000000001    0.2499990000000000    0.4999990000000000 Al
   0.2499990000000000    0.7499980000000001    0.4999990000000000 Al
   0.5000010000000000    0.5000010000000000    0.0000000000000000 Al
