Li1 Al3
1.0
      3.4696559803       0.0000000000      -3.0864288872
     -0.6990020413       3.3985156712      -3.0864288872
      0.0000000000       0.0000000000       4.6437652715
Li Al
1 3
direct
   0.0000000000000000    0.0000000000000000    0.0000000000000000 Li
   0.7499980000000001    0.2499990000000000    0.4999990000000000 Al
   0.2499990000000000    0.7499980000000001    0.4999990000000000 Al
   0.5000010000000000    0.5000010000000000    0.0000000000000000 Al
