Li1 Al3
1.0
      2.7392020897       0.0000000000      -2.4366543846
     -0.5518437168       2.6830386878      -2.4366543846
      0.0000000000       0.0000000000       3.6661304775
Li Al
1 3
direct
   0.0000000000000000    0.0000000000000000    0.0000000000000000 Li
   0.7499980000000001    0.2499990000000000    0.4999990000000000 Al
   0.2499990000000000    0.7499980000000001    0.4999990000000000 Al
   0.5000010000000000    0.5000010000000000    0.0000000000000000 Al
