Li3 Mg3
1.0
      5.1097668415       0.0000000000       1.6643146723
      4.1247669962       3.0159599470       1.6643146723
      0.0000000000       0.0000000000       6.7987637205
Li Mg
3 3
direct
   0.1575217700000000    0.1575217700000000    0.1508950100000000 Li
   0.5000000000000000    0.5000000000000000    0.0000000000000000 Li
   0.8424782300000000    0.8424782300000000    0.8491049899999999 Li
   0.1744227600000000    0.1744227600000000    0.6868172800000000 Mg
   0.5000000000000000    0.5000000000000000    0.5000000000000000 Mg
   0.8255772400000000    0.8255772400000000    0.3131827200000000 Mg
