Li3 Pu1
1.0
      3.6629452892       0.0000000000      -3.7375012214
     -0.6107187793       3.6116742328      -3.7375012214
      0.0000000000       0.0000000000       5.2331714640
Li Pu
3 1
direct
   0.7500000000000000    0.2500000000000000    0.5000000000000000 Li
   0.2500000000000000    0.7500000000000000    0.5000000000000000 Li
   0.5000000000000000    0.5000000000000000    0.0000000000000000 Li
   0.0000000000000000    0.0000000000000000    0.0000000000000000 Pu
