Li3 Pu1
1.0
      3.0524544076       0.0000000000      -3.1145843512
     -0.5089323161       3.0097285273      -3.1145843512
      0.0000000000       0.0000000000       4.3609762200
Li Pu
3 1
direct
   0.7500000000000000    0.2500000000000000    0.5000000000000000 Li
   0.2500000000000000    0.7500000000000000    0.5000000000000000 Li
   0.5000000000000000    0.5000000000000000    0.0000000000000000 Li
   0.0000000000000000    0.0000000000000000    0.0000000000000000 Pu
