Li3 Pu1
1.0
      3.2559513681       0.0000000000      -3.3222233080
     -0.5428611372       3.2103770958      -3.3222233080
      0.0000000000       0.0000000000       4.6517079680
Li Pu
3 1
direct
   0.7500000000000000    0.2500000000000000    0.5000000000000000 Li
   0.2500000000000000    0.7500000000000000    0.5000000000000000 Li
   0.5000000000000000    0.5000000000000000    0.0000000000000000 Li
   0.0000000000000000    0.0000000000000000    0.0000000000000000 Pu
