Li3 Pu1
1.0
      3.4594483286       0.0000000000      -3.5298622647
     -0.5767899583       3.4110256643      -3.5298622647
      0.0000000000       0.0000000000       4.9424397160
Li Pu
3 1
direct
   0.7500000000000000    0.2500000000000000    0.5000000000000000 Li
   0.2500000000000000    0.7500000000000000    0.5000000000000000 Li
   0.5000000000000000    0.5000000000000000    0.0000000000000000 Li
   0.0000000000000000    0.0000000000000000    0.0000000000000000 Pu
