Ca1 Zn5
1.0
      4.2456130160       0.0000000000       0.0000000000
     -2.1228061046       3.6768095691       0.0000000000
      0.0000000000       0.0000000000       3.3555625040
Ca Zn
1 5
direct
   0.0000000000000000    0.0000000000000000    0.0000000000000000 Ca
   0.5000000000000000    0.0000000000000000    0.5000000000000000 Zn
   0.5000000000000000    0.5000000000000000    0.5000000000000000 Zn
   0.0000000000000000    0.5000000000000000    0.5000000000000000 Zn
   0.3333333333333333    0.6666666666666666    0.0000000000000000 Zn
   0.6666666666666666    0.3333333333333333    0.0000000000000000 Zn
