Ca1 Zn5
1.0
      5.0416654565       0.0000000000       0.0000000000
     -2.5208322492       4.3662113633       0.0000000000
      0.0000000000       0.0000000000       3.9847304735
Ca Zn
1 5
direct
   0.0000000000000000    0.0000000000000000    0.0000000000000000 Ca
   0.5000000000000000    0.0000000000000000    0.5000000000000000 Zn
   0.5000000000000000    0.5000000000000000    0.5000000000000000 Zn
   0.0000000000000000    0.5000000000000000    0.5000000000000000 Zn
   0.3333333333333333    0.6666666666666666    0.0000000000000000 Zn
   0.6666666666666666    0.3333333333333333    0.0000000000000000 Zn
