Ca1 Zn5
1.0
      4.5109638295       0.0000000000       0.0000000000
     -2.2554814861       3.9066101671       0.0000000000
      0.0000000000       0.0000000000       3.5652851605
Ca Zn
1 5
direct
   0.0000000000000000    0.0000000000000000    0.0000000000000000 Ca
   0.5000000000000000    0.0000000000000000    0.5000000000000000 Zn
   0.5000000000000000    0.5000000000000000    0.5000000000000000 Zn
   0.0000000000000000    0.5000000000000000    0.5000000000000000 Zn
   0.3333333333333333    0.6666666666666666    0.0000000000000000 Zn
   0.6666666666666666    0.3333333333333333    0.0000000000000000 Zn
