Li4 Mg2
1.0
      4.0291210135       0.0000000000       3.0250903101
      1.5115689371       3.7348327257       3.0250903101
      0.0000000000       0.0000000000       5.0383511660
Li Mg
4 2
direct
   0.3319863500000000    0.0000000000000000    0.6680136500000000 Li
   0.6680136500000000    0.3319863500000000    0.0000000000000000 Li
   0.0000000000000000    0.6680136500000000    0.3319863500000000 Li
   0.5000000000000000    0.5000000000000000    0.5000000000000000 Li
   0.8328719900000000    0.8328719900000000    0.8328719900000000 Mg
   0.1671280100000000    0.1671280100000000    0.1671280100000000 Mg
