Li16 Hf6
1.0
      7.7913511774       0.0000000000      -2.7546586254
     -3.8956755874       6.7475080502      -2.7546586254
      0.0000000000       0.0000000000       8.2639758780
Li Hf
16 6
direct
   0.0000000000000000    0.0000000000000000    0.5000000000000000 Li
   0.0000000000000000    0.5000000000000000    0.0000000000000000 Li
   0.5000000000000000    0.0000000000000000    0.0000000000000000 Li
   0.5000000000000000    0.5000000000000000    0.5000000000000000 Li
   0.1926510000000000    0.1926510000000000    0.3853020000000000 Li
   0.8073490000000000    0.0000000000000000    0.1926510000000000 Li
   0.0000000000000000    0.8073490000000000    0.1926510000000000 Li
   0.8073490000000000    0.1926510000000000    0.0000000000000000 Li
   0.1926510000000000    0.3853020000000000    0.1926510000000000 Li
   0.0000000000000000    0.1926510000000000    0.8073490000000000 Li
   0.1926510000000000    0.8073490000000000    0.0000000000000000 Li
   0.1926510000000000    0.0000000000000000    0.8073490000000000 Li
   0.3853020000000000    0.1926510000000000    0.1926510000000000 Li
   0.8073490000000000    0.8073490000000000    0.6146980000000000 Li
   0.8073490000000000    0.6146980000000000    0.8073490000000000 Li
   0.6146980000000000    0.8073490000000000    0.8073490000000000 Li
   0.6141300000000000    0.6141300000000000    0.0000000000000000 Hf
   0.3858700000000000    0.0000000000000000    0.3858700000000000 Hf
   0.0000000000000000    0.3858700000000000    0.3858700000000000 Hf
   0.3858700000000000    0.3858700000000000    0.0000000000000000 Hf
   0.6141300000000000    0.0000000000000000    0.6141300000000000 Hf
   0.0000000000000000    0.6141300000000000    0.6141300000000000 Hf
