Dy2 Zn4
1.0
      3.4642986887       0.0000000000       1.4951893168
      1.6286083382       4.3633503961       0.9874947160
      0.0000000000       0.0000000000       4.7609172690
Dy Zn
2 4
direct
   0.4695415200000000    0.2804584800000000    0.7804584800000000 Dy
   0.5304584800000000    0.7195415200000000    0.2195415200000000 Dy
   0.8340295500000000    0.1201667400000000    0.2117741600000000 Zn
   0.1659704500000000    0.2882258400000000    0.3798332600000000 Zn
   0.8340295500000000    0.7117741600000000    0.6201667400000000 Zn
   0.1659704500000000    0.8798332600000000    0.7882258400000000 Zn
