K3 Rh1
1.0
      4.2434911857       0.0000000000      -2.6401152759
     -1.3098658643       4.0362691760      -2.6401152759
      0.0000000000       0.0000000000       4.9977421015
K Rh
3 1
direct
   0.7500000000000000    0.2500000000000000    0.5000000000000000 K
   0.2500000000000000    0.7500000000000000    0.5000000000000000 K
   0.5000000000000000    0.5000000000000000    0.0000000000000000 K
   0.0000000000000000    0.0000000000000000    0.0000000000000000 Rh
