K3 Rh1
1.0
      3.9938740571       0.0000000000      -2.4848143773
     -1.2328149311       3.7988415774      -2.4848143773
      0.0000000000       0.0000000000       4.7037572720
K Rh
3 1
direct
   0.7500000000000000    0.2500000000000000    0.5000000000000000 K
   0.2500000000000000    0.7500000000000000    0.5000000000000000 K
   0.5000000000000000    0.5000000000000000    0.0000000000000000 K
   0.0000000000000000    0.0000000000000000    0.0000000000000000 Rh
