K3 Rh1
1.0
      4.7427254428       0.0000000000      -2.9507170731
     -1.4639677306       4.5111243731      -2.9507170731
      0.0000000000       0.0000000000       5.5857117605
K Rh
3 1
direct
   0.7500000000000000    0.2500000000000000    0.5000000000000000 K
   0.2500000000000000    0.7500000000000000    0.5000000000000000 K
   0.5000000000000000    0.5000000000000000    0.0000000000000000 K
   0.0000000000000000    0.0000000000000000    0.0000000000000000 Rh
