K3 Rh1
1.0
      3.7442569286       0.0000000000      -2.3295134787
     -1.1557639979       3.5614139788      -2.3295134787
      0.0000000000       0.0000000000       4.4097724425
K Rh
3 1
direct
   0.7500000000000000    0.2500000000000000    0.5000000000000000 K
   0.2500000000000000    0.7500000000000000    0.5000000000000000 K
   0.5000000000000000    0.5000000000000000    0.0000000000000000 K
   0.0000000000000000    0.0000000000000000    0.0000000000000000 Rh
