K3 Rh1
1.0
      4.4931083143       0.0000000000      -2.7954161745
     -1.3869167975       4.2736967745      -2.7954161745
      0.0000000000       0.0000000000       5.2917269310
K Rh
3 1
direct
   0.7500000000000000    0.2500000000000000    0.5000000000000000 K
   0.2500000000000000    0.7500000000000000    0.5000000000000000 K
   0.5000000000000000    0.5000000000000000    0.0000000000000000 K
   0.0000000000000000    0.0000000000000000    0.0000000000000000 Rh
