Zr16 Cu8
1.0
      6.3935022240       0.0000000000       3.6912892838
      2.1311663303       6.0278520836       3.6912921084
      0.0000000000       0.0000000000       7.3825813895
Zr Cu
16 8
direct
   0.9352887000000000    0.5647113000000000    0.5647113000000000 Zr
   0.9352887500000000    0.5647112500000000    0.9352887500000000 Zr
   0.6852887000000000    0.3147113000000000    0.3147113000000000 Zr
   0.3147113000000000    0.3147113000000000    0.6852887000000000 Zr
   0.3147113000000000    0.6852887000000000    0.6852887000000000 Zr
   0.5647113000000000    0.5647113000000000    0.9352887000000000 Zr
   0.5647113000000000    0.9352887000000000    0.9352887000000000 Zr
   0.1250000000000000    0.1250000000000000    0.1250000000000000 Zr
   0.9352887000000000    0.9352887000000000    0.5647113000000000 Zr
   0.3147112500000000    0.6852887500000000    0.3147112500000000 Zr
   0.5647112500000000    0.9352887500000000    0.5647112500000000 Zr
   0.6852887500000000    0.3147112500000000    0.6852887500000000 Zr
   0.6852887000000000    0.6852887000000000    0.3147113000000000 Zr
   0.1250000000000000    0.6250000000000000    0.1250000000000000 Zr
   0.1250000000000000    0.1250000000000000    0.6250000000000000 Zr
   0.6250000000000000    0.1250000000000000    0.1250000000000000 Zr
   0.9989298400000000    0.3336905700000000    0.3336903000000000 Cu
   0.3336905700000000    0.9989298400000000    0.3336902800000000 Cu
   0.9163097200000000    0.9163097000000000    0.9163094300000000 Cu
   0.2510701600000000    0.9163094300000000    0.9163097000000000 Cu
   0.9163094300000000    0.2510701600000000    0.9163097200000000 Cu
   0.9163097000000000    0.9163097200000000    0.2510701600000000 Cu
   0.3336903000000000    0.3336902800000000    0.9989298400000000 Cu
   0.3336902800000000    0.3336903000000000    0.3336905700000000 Cu
