Cu8 O7
1.0
      4.8836138367       0.0000000000       2.8195557633
      1.6278712789       4.6043152809       2.8195557633
      0.0000000000       0.0000000000       5.6391115265
Cu O
8 7
direct
   0.7500000000000000    0.7500000000000000    0.7500000000000000 Cu
   0.2575540000000000    0.2575540000000000    0.7424460000000001 Cu
   0.2575540000000000    0.7424460000000001    0.7424460000000001 Cu
   0.7424460000000001    0.2575540000000000    0.2575540000000000 Cu
   0.2575540000000000    0.7424460000000001    0.2575540000000000 Cu
   0.7424460000000001    0.2575540000000000    0.7424460000000001 Cu
   0.2500000000000000    0.2500000000000000    0.2500000000000000 Cu
   0.7424460000000001    0.7424460000000001    0.2575540000000000 Cu
   0.0000000000000000    0.5000000000000000    0.0000000000000000 O
   0.5000000000000000    0.5000000000000000    0.0000000000000000 O
   0.0000000000000000    0.5000000000000000    0.5000000000000000 O
   0.5000000000000000    0.0000000000000000    0.5000000000000000 O
   0.0000000000000000    0.0000000000000000    0.5000000000000000 O
   0.5000000000000000    0.0000000000000000    0.0000000000000000 O
   0.0000000000000000    0.0000000000000000    0.0000000000000000 O
