Cu8 O7
1.0
      4.3695492223       0.0000000000       2.5227604198
      1.4565164074       4.1196505145       2.5227604198
      0.0000000000       0.0000000000       5.0455208395
Cu O
8 7
direct
   0.7500000000000000    0.7500000000000000    0.7500000000000000 Cu
   0.2575540000000000    0.2575540000000000    0.7424460000000001 Cu
   0.2575540000000000    0.7424460000000001    0.7424460000000001 Cu
   0.7424460000000001    0.2575540000000000    0.2575540000000000 Cu
   0.2575540000000000    0.7424460000000001    0.2575540000000000 Cu
   0.7424460000000001    0.2575540000000000    0.7424460000000001 Cu
   0.2500000000000000    0.2500000000000000    0.2500000000000000 Cu
   0.7424460000000001    0.7424460000000001    0.2575540000000000 Cu
   0.0000000000000000    0.5000000000000000    0.0000000000000000 O
   0.5000000000000000    0.5000000000000000    0.0000000000000000 O
   0.0000000000000000    0.5000000000000000    0.5000000000000000 O
   0.5000000000000000    0.0000000000000000    0.5000000000000000 O
   0.0000000000000000    0.0000000000000000    0.5000000000000000 O
   0.5000000000000000    0.0000000000000000    0.0000000000000000 O
   0.0000000000000000    0.0000000000000000    0.0000000000000000 O
