Cu8 O7
1.0
      3.8554846079       0.0000000000       2.2259650763
      1.2851615360       3.6349857480       2.2259650763
      0.0000000000       0.0000000000       4.4519301525
Cu O
8 7
direct
   0.7500000000000000    0.7500000000000000    0.7500000000000000 Cu
   0.2575540000000000    0.2575540000000000    0.7424460000000001 Cu
   0.2575540000000000    0.7424460000000001    0.7424460000000001 Cu
   0.7424460000000001    0.2575540000000000    0.2575540000000000 Cu
   0.2575540000000000    0.7424460000000001    0.2575540000000000 Cu
   0.7424460000000001    0.2575540000000000    0.7424460000000001 Cu
   0.2500000000000000    0.2500000000000000    0.2500000000000000 Cu
   0.7424460000000001    0.7424460000000001    0.2575540000000000 Cu
   0.0000000000000000    0.5000000000000000    0.0000000000000000 O
   0.5000000000000000    0.5000000000000000    0.0000000000000000 O
   0.0000000000000000    0.5000000000000000    0.5000000000000000 O
   0.5000000000000000    0.0000000000000000    0.5000000000000000 O
   0.0000000000000000    0.0000000000000000    0.5000000000000000 O
   0.5000000000000000    0.0000000000000000    0.0000000000000000 O
   0.0000000000000000    0.0000000000000000    0.0000000000000000 O
