Cu8 O7
1.0
      4.6265815295       0.0000000000       2.6711580915
      1.5421938432       4.3619828977       2.6711580915
      0.0000000000       0.0000000000       5.3423161830
Cu O
8 7
direct
   0.7500000000000000    0.7500000000000000    0.7500000000000000 Cu
   0.2575540000000000    0.2575540000000000    0.7424460000000001 Cu
   0.2575540000000000    0.7424460000000001    0.7424460000000001 Cu
   0.7424460000000001    0.2575540000000000    0.2575540000000000 Cu
   0.2575540000000000    0.7424460000000001    0.2575540000000000 Cu
   0.7424460000000001    0.2575540000000000    0.7424460000000001 Cu
   0.2500000000000000    0.2500000000000000    0.2500000000000000 Cu
   0.7424460000000001    0.7424460000000001    0.2575540000000000 Cu
   0.0000000000000000    0.5000000000000000    0.0000000000000000 O
   0.5000000000000000    0.5000000000000000    0.0000000000000000 O
   0.0000000000000000    0.5000000000000000    0.5000000000000000 O
   0.5000000000000000    0.0000000000000000    0.5000000000000000 O
   0.0000000000000000    0.0000000000000000    0.5000000000000000 O
   0.5000000000000000    0.0000000000000000    0.0000000000000000 O
   0.0000000000000000    0.0000000000000000    0.0000000000000000 O
