Cu8 O7
1.0
      4.1125169151       0.0000000000       2.3743627480
      1.3708389717       3.8773181312       2.3743627480
      0.0000000000       0.0000000000       4.7487254960
Cu O
8 7
direct
   0.7500000000000000    0.7500000000000000    0.7500000000000000 Cu
   0.2575540000000000    0.2575540000000000    0.7424460000000001 Cu
   0.2575540000000000    0.7424460000000001    0.7424460000000001 Cu
   0.7424460000000001    0.2575540000000000    0.2575540000000000 Cu
   0.2575540000000000    0.7424460000000001    0.2575540000000000 Cu
   0.7424460000000001    0.2575540000000000    0.7424460000000001 Cu
   0.2500000000000000    0.2500000000000000    0.2500000000000000 Cu
   0.7424460000000001    0.7424460000000001    0.2575540000000000 Cu
   0.0000000000000000    0.5000000000000000    0.0000000000000000 O
   0.5000000000000000    0.5000000000000000    0.0000000000000000 O
   0.0000000000000000    0.5000000000000000    0.5000000000000000 O
   0.5000000000000000    0.0000000000000000    0.5000000000000000 O
   0.0000000000000000    0.0000000000000000    0.5000000000000000 O
   0.5000000000000000    0.0000000000000000    0.0000000000000000 O
   0.0000000000000000    0.0000000000000000    0.0000000000000000 O
